AD_withoutwater
1.00000
26.063  0.     0.   
  0.    26.063  0.   
  0.     0.    26.063
H C H H C O N H C H C H H H C O N H C H H H
1 1 1 1 1 1 1 1 1 1 1 1 1 1 1 1 1 1 1 1 1 1
Cartesian
-2.38056481  3.10875772 -0.30649812
 -2.41161835  2.29050068  0.40295031
 -3.22359737  1.63862054  0.09077804
 -2.55963112  2.68766772  1.43050531
 -1.11672507  1.57011886  0.28102284
 -0.22964532  1.99262162 -0.47614744
 -1.01148029  0.39943373  0.95859296
 -1.71675562 -0.31214975  0.86318099
  0.3040149  -0.25152557  1.01096561
  1.08098606  0.57632488  1.03043458
  0.40941299 -1.1338128   2.22786336
  1.38100958 -1.65661842  2.29188343
 -0.37510333 -1.92646382  2.1873838 
  0.29570749 -0.5713771   3.18155172
  0.61314383 -1.07252268 -0.25228965
  0.25509998 -2.24191249 -0.3169967 
  1.24644382 -0.35225668 -1.24490248
  1.04859535  0.64445866 -1.23677775
  2.09472243 -1.09909538 -2.17436057
  2.57029869 -1.92966148 -1.59940055
  1.42300121 -1.55394932 -2.92411941
  2.7943387  -0.41172991 -2.68716605
