AD_withoutwater
1.00000
26.063  0.     0.   
  0.    26.063  0.   
  0.     0.    26.063
H C H H C O N H C H C H H H C O N H C H H H
1 1 1 1 1 1 1 1 1 1 1 1 1 1 1 1 1 1 1 1 1 1
Cartesian
-20.76264937 -17.83856433  -8.17500508
  -2.12817954   1.83178766   3.50679571
 -54.75673199  58.4239744   30.03498997
 -60.83613342  -2.4309212  -36.66450337
  -3.53299002   1.48291412   3.65888246
   1.22075718   2.09494059   0.49496094
  -0.3729253   -4.85554598  -4.05825563
 -52.86876889  25.67016916   9.54813131
   5.38874234   0.37175757   0.341878  
 -35.6943914  -21.64483827  -7.4540394 
   6.53873486   1.22122867   0.6605506 
   8.63873551 -12.45798332  57.28441736
   0.93972399 -64.65990499 -17.97880578
  25.01067395 -36.49654087  -1.68097787
   5.36967115   1.85473875   0.8195802 
   4.23562704   1.41833459   2.7661162 
   0.52095775  -2.03846958  -7.39658359
 -29.31505023   4.96101778 -21.43300834
   6.78858927   3.61581591  -1.61289672
 -19.85178941 -32.05719611  29.12521001
 -38.20121198   9.94610528  13.04421706
 -27.7525925    5.5038229  -22.44105606
