AD_withoutwater
1.00000
26.063  0.     0.   
  0.    26.063  0.   
  0.     0.    26.063
H C H H C O N H C H C H H H C O N H C H H H
1 1 1 1 1 1 1 1 1 1 1 1 1 1 1 1 1 1 1 1 1 1
Cartesian
-24.0148017  -20.2653525   -8.58419374
  -0.50210822   0.03174291   3.84601309
 -54.88256881  65.93756492  27.0633382 
 -70.72132099   0.34454742 -47.5321401 
  -4.75346272   2.58112195   4.17188452
   1.51326712   1.87601821   0.28975293
  -0.76859006  -6.82393857  -4.28934602
 -64.19549639  30.77536585   8.28741754
   5.98913174   2.91223456   2.01885335
 -49.38623821 -29.82503757 -11.24780442
   6.77624674   1.43363296   0.90828795
   8.954895   -10.9239165   63.11952195
   0.79624804 -77.2897953  -22.68042675
  30.72213388 -43.9397401   -2.39215598
   5.52861215   1.70030255   1.190644  
   4.80340816   1.50361241   3.05970187
  -0.00986124  -2.70715048  -9.74171722
 -30.31401903  14.66256122 -23.63202219
  10.1274577    5.72236742  -1.69989468
 -25.37789268 -36.61079112  37.00749374
 -48.70449386   9.99429038  21.19215271
 -35.61379791   5.10043813 -19.46436327
