AD_withoutwater
1.00000
26.063  0.     0.   
  0.    26.063  0.   
  0.     0.    26.063
H C H H C O N H C H C H H H C O N H C H H H
1 1 1 1 1 1 1 1 1 1 1 1 1 1 1 1 1 1 1 1 1 1
Cartesian
 -36.82887437  -22.88620861  -16.1916783 
   13.53651477   -1.66392082    3.95104593
  -54.86491205   94.28556793   22.64938365
  -59.37521215  -34.46140397  -34.50075637
  -10.45763583    7.72506859    6.71639356
    4.51747136    1.52139067    0.28323842
   -3.20528237  -15.73336325   -3.88919162
  -95.00623289   35.42559366    2.36542284
    6.03944468    5.24259189    2.60461463
 -108.40506369  -76.23335832  -35.83385664
    4.89876587    5.42295471    2.30325463
   12.72101794    6.62890548   61.57157361
   -6.58830283 -102.68893424  -27.66044822
   46.19575833  -75.18700951    9.12407073
    5.30174759    4.32500438    3.02976751
    5.36786895    2.08428993    4.32893953
   -3.84270299   -5.10957943  -19.32439936
  -27.48187283   41.53998048  -29.6120495 
   22.26032204   15.38357063   -1.20284315
  -54.12408839  -60.55706923   48.07421929
  -85.91016184   -9.88027946   70.98890904
  -82.05230593    2.86326616  -25.32639179
