AD_withoutwater
1.00000
26.063  0.     0.   
  0.    26.063  0.   
  0.     0.    26.063
H C H H C O N H C H C H H H C O N H C H H H
1 1 1 1 1 1 1 1 1 1 1 1 1 1 1 1 1 1 1 1 1 1
Cartesian
-1.03831157  2.35361512 -3.10334538
 -1.28619153  2.45299549 -1.98414174
 -2.35929151  2.10132195 -1.92006093
 -1.25739883  3.48331465 -1.64174487
 -0.40664389  1.48727411 -1.20303654
  0.74629141  1.19647246 -1.58816738
 -0.96026987  0.95575097 -0.09993084
 -1.93842889  0.69972155 -0.06122856
 -0.08999719  0.44085595  0.91501241
  0.90530204  0.97807267  0.85789514
 -0.5871075   0.66346547  2.30926417
 -0.22704783 -0.07512432  3.01331054
 -1.68428556  0.5049202   2.32826231
 -0.34066004  1.65704223  2.58013856
  0.14883059 -1.08269335  0.71610155
 -0.54359896 -1.96017126  1.21549612
  1.26464151 -1.33199072 -0.04496904
  1.45939298 -0.70307619 -0.82545487
  1.86007624 -2.62438918  0.07691557
  2.88896198 -2.64846601 -0.26806194
  1.86292375 -2.88931743  1.13240918
  1.2903574  -3.47376564 -0.42007226
