AD_withoutwater
1.00000
26.063  0.     0.   
  0.    26.063  0.   
  0.     0.    26.063
H C H H C O N H C H C H H H C O N H C H H H
1 1 1 1 1 1 1 1 1 1 1 1 1 1 1 1 1 1 1 1 1 1
Cartesian
 -36.11384681  -22.06822394  -16.60361885
   12.68473894   -1.67740802    3.89207777
  -52.83289909   92.12816467   21.66574921
  -59.93031392  -33.23427268  -35.4493656 
  -10.13188857    7.36983135    6.78288127
    4.38275633    1.23254046    0.27841656
   -3.05537103  -14.97231562   -3.95842802
  -94.12147374   35.81643782    2.56595292
    6.21927918    4.99338889    2.40971058
 -104.9188009   -73.94846458  -34.72576949
    4.91900367    5.28164492    2.51908419
   11.85252894    5.41680341   61.98786573
   -7.42493619 -102.61630707  -27.89058093
   46.16433139  -73.44713281    7.75711193
    5.40455056    4.24218857    3.09320099
    5.23007554    2.41383614    4.10173183
   -3.61112243   -4.97199506  -18.8027065 
  -28.01278556   41.31976262  -29.14575565
   21.71938731   14.82985828   -1.21838017
  -53.73914269  -62.95880536   47.53048011
  -84.23569146   -8.61041671   68.7855326 
  -80.27072681    4.56729364  -24.34324858
