AD_withoutwater
1.00000
26.063  0.     0.   
  0.    26.063  0.   
  0.     0.    26.063
H C H H C O N H C H C H H H C O N H C H H H
1 1 1 1 1 1 1 1 1 1 1 1 1 1 1 1 1 1 1 1 1 1
Cartesian
-1.02536004  2.44957692 -3.0632261 
 -1.35271277  2.44502033 -1.96319543
 -2.44961437  2.25102375 -1.83616186
 -1.10639876  3.44010376 -1.63844845
 -0.41639749  1.48442713 -1.23771229
  0.7327926   1.22348269 -1.56351189
 -0.94680677  0.97493196 -0.09085889
 -1.93672031  0.78983614 -0.01999959
 -0.11362457  0.37832079  0.94043846
  0.91907073  0.83815994  0.81384583
 -0.63788198  0.68334211  2.35760944
 -0.08599191  0.03778816  3.04484929
 -1.72446243  0.52861082  2.41146612
 -0.45934133  1.68409591  2.70366614
  0.15259994 -1.08046862  0.64888354
 -0.46475093 -1.9432685   1.26779   
  1.25506929 -1.34610381 -0.0906754 
  1.33418239 -0.80253819 -0.96324548
  1.91026521 -2.66401486  0.03442344
  2.94775651 -2.58099954 -0.30630768
  1.86867919 -2.97095576  1.0758792 
  1.3443905  -3.35788207 -0.66187233
