AD_withoutwater
1.00000
26.063  0.     0.   
  0.    26.063  0.   
  0.     0.    26.063
H C H H C O N H C H C H H H C O N H C H H H
1 1 1 1 1 1 1 1 1 1 1 1 1 1 1 1 1 1 1 1 1 1
Cartesian
 -37.77925017  -23.9873409   -15.41057859
   15.84708018   -1.66684948    4.10477795
  -54.40470194   98.85244008   22.22004323
  -60.68250967  -38.83550479  -28.27673565
  -11.21518641    8.63872773    6.41745693
    4.95147005    1.86767917    0.13608003
   -3.62223069  -17.73373864   -3.72305843
  -96.06764031   36.03586262    1.74209686
    5.35070481    6.00306486    2.56108976
 -117.49839896  -81.78438287  -39.37820318
    5.18782829    5.27106114    2.34950899
   14.13202817    8.29108901   63.07641448
   -8.64249298 -104.85280836  -32.22363789
   44.81981043  -79.69824149   12.97456872
    4.98904864    5.53638712    3.31348223
    5.55425575    1.12111811    4.71650861
   -4.54438595   -5.49527501  -20.70816682
  -29.97023929   47.3179667   -29.53320774
   23.53999974   16.76139493   -0.89891956
  -57.19308267  -57.21940634   46.80659597
  -86.0022478   -11.463206     74.52992994
  -81.98906248    0.18417852  -23.1187697 
