AD_withoutwater
1.00000
26.063  0.     0.   
  0.    26.063  0.   
  0.     0.    26.063
H C H H C O N H C H C H H H C O N H C H H H
1 1 1 1 1 1 1 1 1 1 1 1 1 1 1 1 1 1 1 1 1 1
Cartesian
 -32.18241366  -22.49193364  -12.64917655
    7.96841078   -1.86822949    3.41957012
  -53.80539406   85.88940166   21.89019353
  -58.97810207  -23.96140632  -41.60250338
   -8.53269579    5.53468468    6.43135138
    3.79082767    0.71051934    0.40791034
   -2.44500018  -12.32046653   -4.32234577
  -86.80293387   36.65250311    4.4369026 
    5.6830551     3.89474855    2.52739039
  -85.46622476  -61.26830557  -28.58773656
    6.17390354    4.61736851    1.85336828
   10.19109793   -0.28610836   62.38303045
  -12.16504567 -102.30876228  -29.03048188
   43.60708304  -64.53202258    0.8381185 
    5.87566274    4.22584861    2.03002441
    4.60136523    3.09499308    4.34342775
   -2.34446707   -4.33719681  -16.03303722
  -25.68246905   33.6792157   -31.28132018
   18.51692435   11.77817816   -1.48079157
  -41.60979464  -52.86861573   48.88597313
  -78.13846906   -2.64767066   58.98418096
  -68.08561595   10.00813311  -19.32552547
