AD_withoutwater
1.00000
26.063  0.     0.   
  0.    26.063  0.   
  0.     0.    26.063
H C H H C O N H C H C H H H C O N H C H H H
1 1 1 1 1 1 1 1 1 1 1 1 1 1 1 1 1 1 1 1 1 1
Cartesian
-25.15387115 -20.85932623  -8.49295629
   0.42097569  -0.68722706   3.8175021 
 -55.55053058  70.62389532  27.16614275
 -70.15941655  -2.43881212 -47.66134623
  -5.29427359   2.97698746   4.4289398 
   1.91102094   1.78031611   0.29578948
  -0.97479554  -7.60874034  -4.36739754
 -69.12672635  32.73815487   7.64632829
   5.87959648   3.01181858   2.00814713
 -54.09775922 -34.01614376 -13.54924542
   6.99569711   1.8896047    0.50990299
   8.976514    -9.27192994  63.15271151
  -1.73802603 -82.13053649 -24.22624653
  32.9428126  -46.94029754  -2.99985279
   5.96861891   2.33126024   1.5020883 
   4.43781518   1.73010825   3.61941018
  -0.30302306  -2.92836762 -10.63927477
 -29.55982106  16.33941378 -25.65459643
  11.40052477   6.5559571   -1.73238114
 -27.66846599 -38.37037192  40.31135056
 -52.72867478   8.41495215  27.21993469
 -38.70884803   5.54236892 -18.38773288
