AD_withoutwater
1.00000
26.063  0.     0.   
  0.    26.063  0.   
  0.     0.    26.063
H C H H C O N H C H C H H H C O N H C H H H
1 1 1 1 1 1 1 1 1 1 1 1 1 1 1 1 1 1 1 1 1 1
Cartesian
 -34.23899065  -21.40003198  -15.53793794
   10.21205353   -1.72841863    3.66750137
  -51.28571031   90.00365634   21.04363433
  -56.04019262  -30.29479502  -40.50349259
   -9.29425827    6.32905609    6.79420988
    4.22782651    1.11569068    0.57341406
   -2.84559688  -13.40794093   -4.17838128
  -91.18179393   36.49398936    3.52598687
    6.20410044    4.48987726    1.72209667
  -94.78542017  -67.45723104  -31.67882953
    5.68395186    3.77484298    2.93687309
   10.82118361    2.17839257   62.28491133
   -9.71648515 -102.39585301  -28.43687482
   45.63819276  -68.41910161    3.70166554
    5.45263875    5.30374381    2.0080987 
    4.69463287    2.45875495    4.36362347
   -2.95617079   -4.61961618  -17.29582734
  -26.37215372   36.5587783   -30.54427838
   20.09204154   13.25649636   -1.37563774
  -48.85334674  -60.65490479   48.42366332
  -84.29467544   -3.79639595   64.62445715
  -74.92360862    9.11237866  -20.94706498
