AD_withoutwater
1.00000
26.063  0.     0.   
  0.    26.063  0.   
  0.     0.    26.063
H C H H C O N H C H C H H H C O N H C H H H
1 1 1 1 1 1 1 1 1 1 1 1 1 1 1 1 1 1 1 1 1 1
Cartesian
-28.22634292 -22.28803289  -8.03779678
   3.53520223  -1.99438722   3.3022243 
 -55.47090391  78.51975733  23.6963031 
 -64.99942833 -13.1894713  -44.94926504
  -6.80075568   4.15932111   5.44355964
   3.04941314   1.24972318   0.68933828
  -1.64198682  -9.88318652  -4.4040113 
 -78.22808376  35.67766747   5.48092923
   6.2743126    3.64435529   2.48172216
 -66.79969843 -49.20256616 -20.23741816
   6.83540762   3.102724     0.6248334 
   9.0649789   -4.52564705  62.89073116
  -9.11908715 -95.19035542 -29.07723113
  38.14716727 -55.83691988  -1.78691976
   6.01095788   3.87478944   1.48797024
   3.84123685   2.60871723   4.30058269
  -1.22773664  -3.57864079 -13.27045529
 -28.30109112  24.74088505 -29.69302365
  15.0873082    8.97981131  -1.88209923
 -34.97298769 -42.63896289  49.29702513
 -64.26097963   2.60805469  43.66750725
 -52.23104401   8.33339461 -17.74270906
