AD_withoutwater
1.00000
26.063  0.     0.   
  0.    26.063  0.   
  0.     0.    26.063
H C H H C O N H C H C H H H C O N H C H H H
1 1 1 1 1 1 1 1 1 1 1 1 1 1 1 1 1 1 1 1 1 1
Cartesian
-0.93390178  2.98537915 -2.5070376 
 -1.48924887  2.38861991 -1.77403574
 -2.18336492  1.70504873 -2.302965  
 -2.1081272   3.06800311 -1.14704546
 -0.48613396  1.52450797 -0.97867596
  0.71944143  1.55519923 -1.17306992
 -1.06088606  0.87037739  0.08254624
 -1.96664543  0.41566966 -0.00538307
 -0.1966477   0.24250348  1.07585658
  0.67348799  0.88614726  1.14630599
 -0.84673232  0.20607266  2.48950161
 -0.00526539 -0.00004515  3.14018012
 -1.60734431 -0.53906763  2.52570884
 -1.29211898  1.15358268  2.75928058
  0.34840332 -1.13884202  0.68013887
  0.39151514 -2.03758861  1.46178547
  1.03611083 -1.15316036 -0.49757403
  0.98950509 -0.35164236 -1.11975729
  1.68057129 -2.33028634 -1.00484801
  2.76191441 -2.28618744 -0.76252166
  1.27990566 -3.28158847 -0.58966395
  1.62343218 -2.21645882 -2.11821303
