AD_withoutwater
1.00000
26.063  0.     0.   
  0.    26.063  0.   
  0.     0.    26.063
H C H H C O N H C H C H H H C O N H C H H H
1 1 1 1 1 1 1 1 1 1 1 1 1 1 1 1 1 1 1 1 1 1
Cartesian
-24.98392069 -20.78481691  -8.51100208
   0.27601557  -0.58994586   3.8254968 
 -55.29512518  70.14501747  27.10932459
 -70.42258231  -1.83827581 -47.81067598
  -5.21487347   2.92208269   4.38771667
   1.8479143    1.79511312   0.28604644
  -0.94554335  -7.49160598  -4.35606291
 -68.46878408  32.46585352   7.75625175
   5.97203302   3.01116422   1.97792986
 -53.41634207 -33.33024501 -13.17954912
   7.0342761    1.83575788   0.55975113
   8.96995211  -9.51247404  63.13925266
  -1.31925465 -81.36476101 -24.02258163
  32.61752182 -46.49316729  -2.9125428 
   5.80767938   2.22575501   1.44289942
   4.47281235   1.66900294   3.59366616
  -0.25855576  -2.89765664 -10.50759995
 -29.82945991  15.87425976 -25.30787784
  11.21522734   6.43497116  -1.72575809
 -27.32544885 -38.12110672  39.83229676
 -52.15891911   8.65484024  26.33272639
 -38.17711456   5.46222866 -18.54009304
