AD_withoutwater
1.00000
26.063  0.     0.   
  0.    26.063  0.   
  0.     0.    26.063
H C H H C O N H C H C H H H C O N H C H H H
1 1 1 1 1 1 1 1 1 1 1 1 1 1 1 1 1 1 1 1 1 1
Cartesian
-3.15606525  2.43439693  0.96261652
 -2.93416843  1.35804373  0.80681315
 -3.40809264  0.97557646 -0.10900823
 -3.38018391  0.84100875  1.65777048
 -1.42285397  1.22031011  0.79312119
 -0.67345137  2.14904466  0.98045713
 -0.99286753 -0.08627463  0.5750384 
 -1.67399985 -0.83455581  0.68495812
  0.39324904 -0.46887424  0.81466959
  0.88621574  0.38550706  1.22750405
  0.44378141 -1.54136772  1.8824991 
  1.44130705 -1.87880109  2.05557989
 -0.21363556 -2.39625385  1.64272906
  0.0939328  -1.14465089  2.81930474
  1.16485087 -0.75981221 -0.48741583
  2.21187722 -1.39690644 -0.51322441
  0.67645452 -0.14560413 -1.6184253 
 -0.21292777  0.33630319 -1.58361808
  1.33819399 -0.29678971 -2.88246491
  2.37146028  0.05704286 -2.88491486
  1.32771048 -1.34801905 -3.20014405
  0.77991961  0.23136335 -3.65615625
