AD_withoutwater
1.00000
26.063  0.     0.   
  0.    26.063  0.   
  0.     0.    26.063
H C H H C O N H C H C H H H C O N H C H H H
1 1 1 1 1 1 1 1 1 1 1 1 1 1 1 1 1 1 1 1 1 1
Cartesian
 -36.24664319  -22.25362612  -16.50214282
   12.85634253   -1.67102857    3.90529934
  -52.94371643   92.13838699   21.75912948
  -59.86931877  -33.38782354  -35.29197116
  -10.19491066    7.44694493    6.7684286 
    4.40727932    1.28105573    0.27701488
   -3.08557623  -15.128798     -3.94801618
  -94.28108475   35.75460154    2.52017329
    6.18150072    5.03992291    2.4575486 
 -105.61853824  -74.41250477  -34.94740755
    4.8925825     5.36688179    2.44545794
   11.9883185     5.66313915   61.92856209
   -7.26436878 -102.63499499  -27.84661871
   46.19005403  -73.80507534    8.04522998
    5.40355209    4.14768267    3.14515147
    5.26038825    2.39537494    4.11425042
   -3.65868539   -4.99890693  -18.90812075
  -28.15737328   41.48000272  -29.01097228
   21.83293665   14.94704151   -1.21405318
  -53.90106629  -62.21229413   47.56028621
  -84.52775732   -8.96795139   69.26350532
  -80.61071231    4.22884907  -24.54488986
