AD_withoutwater
1.00000
26.063  0.     0.   
  0.    26.063  0.   
  0.     0.    26.063
H C H H C O N H C H C H H H C O N H C H H H
1 1 1 1 1 1 1 1 1 1 1 1 1 1 1 1 1 1 1 1 1 1
Cartesian
-28.29994795 -22.32803468  -8.02374678
   3.63912346  -1.99361106   3.27710639
 -55.51620259  78.53375673  23.56175526
 -64.85095342 -13.52412976 -44.87223587
  -6.85203234   4.1950152    5.47869978
   3.09880943   1.2305744    0.71710799
  -1.66097045  -9.95553868  -4.4035597 
 -78.42448096  35.75417446   5.34457529
   6.25749196   3.6324377    2.46085406
 -67.18049694 -49.69180148 -20.44507683
   6.83704351   3.1636868    0.62937368
   9.08404786  -4.39419234  62.88453316
  -9.44948769 -95.59379294 -29.22766736
  38.30439088 -56.09451374  -1.71971339
   5.98620409   3.89898563   1.52271381
   3.8387468    2.63492452   4.31131632
  -1.25848476  -3.59972559 -13.35183984
 -28.18970313  25.23282009 -29.8094521 
  15.20133382   9.05512237  -1.88507232
 -35.07604138 -42.71864135  49.55549026
 -64.63854264   2.40672164  44.15346346
 -52.72220631   8.4036375  -17.68906622
