AD_withoutwater
1.00000
26.063  0.     0.   
  0.    26.063  0.   
  0.     0.    26.063
H C H H C O N H C H C H H H C O N H C H H H
1 1 1 1 1 1 1 1 1 1 1 1 1 1 1 1 1 1 1 1 1 1
Cartesian
-23.53768664 -19.97416337  -8.56786852
  -0.8239564    0.3606802    3.79861719
 -55.59786412  64.00544911  27.77605756
 -69.06983278  -0.11003589 -45.74218423
  -4.51388353   2.40442778   4.07385873
   1.36278847   1.90443227   0.31928179
  -0.69214808  -6.4966065   -4.24952143
 -62.4087557   29.8784055    8.75257388
   5.92897303   2.57592246   1.74833994
 -47.12780646 -28.44023272 -10.58930509
   6.65882627   1.31365064   1.00649035
   8.95184315 -11.64959822  63.12937194
   0.88688206 -75.411221   -21.85202746
  29.7751885  -42.72109109  -2.1780426 
   5.57918531   1.77727744   1.07179552
   4.76388003   1.44180923   2.96716299
   0.08029888  -2.59838434  -9.36136445
 -29.64985277  13.90800168 -23.535987  
   9.60420238   5.38585654  -1.69817842
 -24.45285075 -35.8654024   35.65301285
 -46.98828111  10.53602649  18.79757565
 -34.09637603   4.99346663 -20.16880755
