AD_withoutwater
1.00000
26.063  0.     0.   
  0.    26.063  0.   
  0.     0.    26.063
H C H H C O N H C H C H H H C O N H C H H H
1 1 1 1 1 1 1 1 1 1 1 1 1 1 1 1 1 1 1 1 1 1
Cartesian
-1.58292415  3.0839882  -1.91892368
 -1.94541394  2.27788952 -1.20130391
 -2.46127731  1.51459581 -1.78486748
 -2.61528447  2.77935789 -0.51537328
 -0.80051723  1.69202339 -0.48331475
  0.35921635  2.08516116 -0.66826009
 -1.05649463  0.65037394  0.34088553
 -1.98760319  0.40270073  0.62195199
 -0.0053863   0.01902047  1.11973781
  0.82436688  0.67161265  1.27639403
 -0.57753826 -0.40099379  2.44986776
  0.20131419 -0.88505613  3.02024626
 -1.44575145 -1.10099412  2.23332895
 -0.99855775  0.3988834   3.05044083
  0.67445026 -1.18188786  0.41102364
  0.79504307 -2.27578122  0.94093532
  1.25386938 -0.84264276 -0.77465074
  1.14961139  0.08049419 -1.23427812
  1.47271805 -1.91395007 -1.73452406
  1.89223038 -2.78450417 -1.2552587 
  0.60554832 -2.1948214  -2.33884469
  2.1834912  -1.53521085 -2.49291319
