AD_withoutwater
1.00000
26.063  0.     0.   
  0.    26.063  0.   
  0.     0.    26.063
H C H H C O N H C H C H H H C O N H C H H H
1 1 1 1 1 1 1 1 1 1 1 1 1 1 1 1 1 1 1 1 1 1
Cartesian
-2.70666132  2.90660973 -0.41144454
 -2.53522598  2.15900694  0.39558283
 -3.28398754  1.37746051  0.30353014
 -2.66380228  2.64229902  1.38179654
 -1.14951063  1.5042401   0.30351706
 -0.25877006  1.98308944 -0.40115759
 -0.95885359  0.43174435  1.07002566
 -1.72585515  0.13418794  1.67429535
  0.3361831  -0.29316109  1.08119268
  1.10255302  0.43384119  1.26688245
  0.40042512 -1.3604686   2.2330708 
  1.41550004 -1.73637734  2.22464041
 -0.28538193 -2.1453055   1.95013971
  0.05678773 -0.95974112  3.17309907
  0.671536   -0.97033644 -0.27152223
  0.39048359 -2.14879144 -0.46208457
  1.34895629 -0.23147222 -1.21203365
  1.01411356  0.72306847 -1.28813534
  1.94248758 -0.98784484 -2.33313286
  2.28624641 -1.93345168 -1.98598877
  1.21109631 -1.14833936 -3.11104142
  2.8011502  -0.4606028  -2.70906483
