AD_withoutwater
1.00000
26.063  0.     0.   
  0.    26.063  0.   
  0.     0.    26.063
H C H H C O N H C H C H H H C O N H C H H H
1 1 1 1 1 1 1 1 1 1 1 1 1 1 1 1 1 1 1 1 1 1
Cartesian
 -33.99538027  -21.52122303  -15.14069774
    9.96135361   -1.73449066    3.63551576
  -51.20376135   89.18033617   20.87603348
  -56.25536813  -29.51443292  -40.83375848
   -9.20710791    6.23674996    6.75624141
    4.17784831    1.0685417     0.55940338
   -2.79404577  -13.29689764   -4.20368969
  -90.78194577   36.55461958    3.64757048
    6.13145762    4.40552185    1.81852194
  -93.74737521  -66.749376    -31.35884147
    5.76094164    3.79514279    2.85406551
   10.75405938    1.86439743   62.30209293
   -9.96107284 -102.3717814   -28.49818526
   45.51217496  -67.97423517    3.35128604
    5.48691727    5.27325432    1.96552854
    4.68496894    2.52055466    4.35380327
   -2.8864752    -4.59033398  -17.14800708
  -26.72504841   36.69150048  -30.37738011
   19.91463488   13.0926835    -1.38503109
  -48.03389227  -59.78277862   48.47710795
  -83.72494621   -3.73452742   64.14058373
  -74.19867489    9.35589819  -20.67314185
