AD_withoutwater
1.00000
26.063  0.     0.   
  0.    26.063  0.   
  0.     0.    26.063
H C H H C O N H C H C H H H C O N H C H H H
1 1 1 1 1 1 1 1 1 1 1 1 1 1 1 1 1 1 1 1 1 1
Cartesian
-25.56369463 -21.04505661  -8.45263367
   0.77406188  -0.90537447   3.79880381
 -56.1524193   71.30629853  27.13724772
 -69.56760551  -3.78185592 -47.33090935
  -5.481642     3.10160047   4.53043219
   2.07156791   1.74665652   0.33160736
  -1.04289645  -7.88492849  -4.38798295
 -70.63587869  33.344726     7.34886015
   5.57748274   2.99642714   2.15324029
 -55.7166997  -35.66397063 -14.3885212 
   6.84249642   2.02081267   0.42804962
   8.99620209  -8.68395018  63.17771252
  -2.69433385 -83.89766779 -24.72243018
  33.73231058 -47.99836473  -3.14529885
   6.34593808   2.51903283   1.68327032
   4.44617842   1.92320835   3.55215864
  -0.41112759  -3.00492956 -10.94949344
 -28.91256373  17.89405722 -26.3446345 
  11.83764754   6.83979826  -1.75297977
 -28.49353543 -38.93872673  41.4198849 
 -54.0581402    7.85702903  29.30794302
 -39.99376251   5.72988611 -18.04477889
