AD_withoutwater
1.00000
26.063  0.     0.   
  0.    26.063  0.   
  0.     0.    26.063
H C H H C O N H C H C H H H C O N H C H H H
1 1 1 1 1 1 1 1 1 1 1 1 1 1 1 1 1 1 1 1 1 1
Cartesian
-28.21340583 -22.28063835  -8.04028452
   3.51637442  -1.99420454   3.3066893 
 -55.44871806  78.49927527  23.70615993
 -65.02686289 -13.12857152 -44.96306605
  -6.79154804   4.15276477   5.43712488
   3.04013442   1.25294139   0.68386216
  -1.6383979   -9.87001184  -4.40396712
 -78.1916459   35.66540558   5.5020268 
   6.27509735   3.64744393   2.49101146
 -66.73074708 -49.11347965 -20.20026402
   6.83629966   3.09041953   0.61952639
   9.06142203  -4.54968193  62.89168439
  -9.05905422 -95.11732231 -29.04966826
  38.11904886 -55.79032874  -1.79928326
   6.01659546   3.87078709   1.48098108
   3.84197137   2.60377776   4.29882947
  -1.22220733  -3.57468417 -13.25562492
 -28.33433092  24.66988114 -29.65745399
  15.06580315   8.96588767  -1.88134865
 -34.94673846 -42.62232003  49.24686115
 -64.19255446   2.64421897  43.57921791
 -52.14210828   8.31877661 -17.74750546
