AD_withoutwater
1.00000
26.063  0.     0.   
  0.    26.063  0.   
  0.     0.    26.063
H C H H C O N H C H C H H H C O N H C H H H
1 1 1 1 1 1 1 1 1 1 1 1 1 1 1 1 1 1 1 1 1 1
Cartesian
 -37.78094825  -23.9919704   -15.40539569
   15.85740611   -1.66685809    4.10541086
  -54.3843453    98.86236926   22.23116026
  -60.69583753  -38.83412     -28.25725129
  -11.21828289    8.64281388    6.4155275 
    4.95395119    1.86894663    0.13750648
   -3.62420177  -17.74266311   -3.72239331
  -96.06578253   36.04585543    1.73911799
    5.34611747    6.00328613    2.5610925 
 -117.53646784  -81.80492483  -39.39806088
    5.18872205    5.27126171    2.35046493
   14.13299669    8.29247351   63.09373548
   -8.65292698 -104.86503889  -32.24747762
   44.80706238  -79.71931701   12.99329827
    4.98910916    5.54347604    3.31426447
    5.55470679    1.11740259    4.71599381
   -4.54779389   -5.49711546  -20.71423548
  -29.99702334   47.32666848  -29.55516799
   23.54569402   16.7682141    -0.89809495
  -57.21202643  -57.18799734   46.81400837
  -85.99029432  -11.48695542   74.55633582
  -81.98511106    0.17433088  -23.10830796
