AD_withoutwater
1.00000
26.063  0.     0.   
  0.    26.063  0.   
  0.     0.    26.063
H C H H C O N H C H C H H H C O N H C H H H
1 1 1 1 1 1 1 1 1 1 1 1 1 1 1 1 1 1 1 1 1 1
Cartesian
-23.28729759 -19.80732247  -8.54165169
  -0.986894     0.50977892   3.77021592
 -55.98963219  63.27709836  28.23951302
 -68.25189843  -0.34228691 -44.86344729
  -4.39649877   2.31615865   4.02761016
   1.31764377   1.91703555   0.34124704
  -0.65870653  -6.3333877   -4.22715747
 -61.49136644  29.45195713   8.92113177
   5.86527257   2.36865463   1.63754298
 -46.0131928  -27.77133514 -10.26292264
   6.6805072    1.25741086   0.96150842
   8.96750232 -12.002802    63.1134733 
   0.9163109  -74.30949539 -21.41571362
  29.31196673 -42.10733717  -2.11615553
   5.61433624   1.82640566   0.96375678
   4.68131475   1.43231833   3.00177174
   0.12343007  -2.54018634  -9.17470845
 -29.2782647   13.29826563 -23.59270372
   9.34620128   5.21770625  -1.69400861
 -24.0050984  -35.49468867  34.9983921 
 -46.16186675  10.7682345   17.65386766
 -33.36815827   4.90437416 -20.47561778
