AD_withoutwater
1.00000
26.063  0.     0.   
  0.    26.063  0.   
  0.     0.    26.063
H C H H C O N H C H C H H H C O N H C H H H
1 1 1 1 1 1 1 1 1 1 1 1 1 1 1 1 1 1 1 1 1 1
Cartesian
 -35.34555192  -20.97327923  -17.11352945
   11.51703242   -1.71043765    3.79857806
  -52.84787836   92.14310677   22.03843453
  -58.57132489  -32.87482276  -36.99510091
   -9.7233786     6.82841765    6.88787812
    4.29398063    1.11314652    0.40232181
   -2.9216043   -14.05571441   -4.02897932
  -92.94461361   36.11721602    2.98641233
    6.33517418    4.69179313    2.03315479
 -100.13819483  -70.86761649  -33.21750019
    5.2261368     4.51067149    2.89673054
   11.19271976    3.82141084   62.21684409
   -8.4692674  -102.50980666  -28.14857194
   45.98652983  -70.90358555    5.72786927
    5.38201509    4.64435566    2.70784516
    5.00334245    2.64473996    4.05689728
   -3.30489609   -4.79952872  -18.08706402
  -25.69782239   39.24422497  -31.19713232
   20.97489479   14.04130455   -1.31597455
  -52.80056255  -65.16615214   48.03118407
  -83.85371558   -5.32058227   65.96114807
  -78.03699878    6.98113141  -22.7909066 
