AD_withoutwater
1.00000
26.063  0.     0.   
  0.    26.063  0.   
  0.     0.    26.063
H C H H C O N H C H C H H H C O N H C H H H
1 1 1 1 1 1 1 1 1 1 1 1 1 1 1 1 1 1 1 1 1 1
Cartesian
-21.49804994 -18.40189733  -8.27826864
  -1.8971988    1.46216329   3.58082141
 -55.53621094  60.68687062  30.09512596
 -62.85235914  -1.82976515 -38.9606187 
  -3.68894878   1.71908788   3.74768629
   1.27419654   2.02458714   0.51825344
  -0.4469054   -5.26382216  -4.10163169
 -55.26740326  26.67941355   9.55510514
   5.52090213   0.87116716   0.73983572
 -38.58079874 -23.32638373  -8.17751829
   6.60646911   1.20954685   0.76108079
   8.80563326 -12.8890366   60.06505719
   1.02094031 -67.29021309 -18.84765123
  26.2244704  -38.03367255  -1.83049826
   5.35352288   1.96270774   0.94986703
   4.37030293   1.40439897   2.66393792
   0.41553646  -2.16748896  -7.90609907
 -29.67680597   6.6529996  -22.73744385
   7.50467595   4.03689893  -1.62758616
 -21.02596136 -33.06091781  30.74696664
 -40.48592734  10.71016378  13.16947472
 -28.69193748   5.27780681 -21.91615826
