AD_withoutwater
1.00000
26.063  0.     0.   
  0.    26.063  0.   
  0.     0.    26.063
H C H H C O N H C H C H H H C O N H C H H H
1 1 1 1 1 1 1 1 1 1 1 1 1 1 1 1 1 1 1 1 1 1
Cartesian
-3.44537081  1.8555877   1.032932  
 -3.04839942  0.84408409  1.01642252
 -3.47422998  0.27449722  0.18536893
 -3.36237472  0.32488696  1.93130356
 -1.50584464  0.84233622  0.93434   
 -0.87643817  1.86473591  1.05790748
 -0.97899637 -0.39160544  0.65966957
 -1.55379801 -1.19855474  0.90565645
  0.47473084 -0.54066282  0.8000117 
  0.79484574  0.30110479  1.44799547
  0.89345327 -1.82616883  1.46906376
  1.99129726 -1.8962383   1.57155384
  0.48328107 -2.68976343  0.92217806
  0.46345855 -1.87626327  2.49248787
  1.20178659 -0.28095332 -0.518378  
  2.42559005 -0.27830817 -0.51475102
  0.47849137 -0.09846067 -1.63103585
 -0.49304757  0.13686286 -1.52691802
  1.12721586 -0.1075132  -2.93203483
  1.59159408  0.88457897 -3.05605902
  1.91990901 -0.85408809 -2.88586732
  0.40977766 -0.35913229 -3.72976361
