AD_withoutwater
1.00000
26.063  0.     0.   
  0.    26.063  0.   
  0.     0.    26.063
H C H H C O N H C H C H H H C O N H C H H H
1 1 1 1 1 1 1 1 1 1 1 1 1 1 1 1 1 1 1 1 1 1
Cartesian
-1.52734189  3.20097281 -1.91210714
 -1.83608605  2.20431227 -1.43383061
 -2.04166358  1.51091381 -2.2364246 
 -2.7683832   2.35049788 -0.85777429
 -0.75256675  1.68830096 -0.56423975
  0.39844355  2.14150137 -0.56556477
 -1.0691111   0.61645978  0.18851239
 -2.03868686  0.36131455  0.26667424
 -0.06771082  0.10257498  1.09942491
  0.65441214  0.8887037   1.15563839
 -0.5759661  -0.21209153  2.50723129
  0.26540259 -0.51845816  3.09822468
 -1.1443591  -1.15255808  2.44970622
 -1.11149443  0.61304025  2.9634884 
  0.65112007 -1.15095194  0.50009462
  0.71445056 -2.24044322  1.05398714
  1.21263953 -0.95749421 -0.75357269
  1.3584047   0.00561941 -1.08243422
  1.46959241 -2.07128012 -1.64917934
  1.86486597 -2.91395505 -1.09158557
  0.5527269  -2.42565344 -2.1577942 
  2.26241339 -1.68283262 -2.33188141
