AD_withoutwater
1.00000
26.063  0.     0.   
  0.    26.063  0.   
  0.     0.    26.063
H C H H C O N H C H C H H H C O N H C H H H
1 1 1 1 1 1 1 1 1 1 1 1 1 1 1 1 1 1 1 1 1 1
Cartesian
-2.69681104  2.70816935 -0.30847428
 -2.58878878  1.74681364  0.22207033
 -3.08438554  0.94476815 -0.32216034
 -3.11865072  1.85450673  1.17225827
 -1.14476211  1.41826341  0.40392719
 -0.27567303  2.03962642 -0.14387027
 -0.86407758  0.25960948  1.10897205
 -1.66496164 -0.32518721  1.35162684
  0.46162251 -0.41245767  1.1171825 
  1.22342223  0.36779257  1.39161883
  0.50289197 -1.49224423  2.18880476
  1.5523024  -1.79541762  2.3702602 
 -0.0657659  -2.39133902  1.90763411
  0.05904572 -1.10345299  3.15766885
  0.80211387 -0.94382247 -0.26404131
  0.57629923 -2.09719134 -0.57953478
  1.26551073 -0.04072012 -1.13015459
  1.14253197  0.942207   -0.95035679
  1.49459686 -0.41394183 -2.48637972
  2.18930631 -1.27809111 -2.49928421
  0.56054206 -0.73563005 -2.97784033
  1.95448565  0.43663303 -3.003053  
