AD_withoutwater
1.00000
26.063  0.     0.   
  0.    26.063  0.   
  0.     0.    26.063
H C H H C O N H C H C H H H C O N H C H H H
1 1 1 1 1 1 1 1 1 1 1 1 1 1 1 1 1 1 1 1 1 1
Cartesian
-2.90189827  2.72624223  0.13421003
 -2.71966067  1.63706072  0.27667757
 -3.01662959  1.06264943 -0.62129797
 -3.37998041  1.29913504  1.08721962
 -1.2506121   1.33690386  0.60480007
 -0.44533388  2.24619345  0.81340374
 -0.93291537  0.0288921   0.77552663
 -1.64892056 -0.67953573  0.7440469 
  0.45768465 -0.42069893  0.91278912
  1.0895424   0.50071147  1.17004761
  0.62720952 -1.43255319  2.04399706
  1.57405484 -2.00285081  2.0079657 
 -0.18612932 -2.17133631  2.06407543
  0.62906896 -0.95321598  3.04788001
  0.89886267 -0.95536036 -0.41219039
  1.18532082 -2.12422375 -0.55073248
  0.99120607 -0.00780125 -1.37745777
  0.83038786  0.93116449 -1.04759925
  1.37915939 -0.27393329 -2.72169371
  2.37650846 -0.68132615 -2.73106444
  0.71347903 -1.04281783 -3.15604889
  1.32894742  0.65117548 -3.28642787
