AD_withoutwater
1.00000
26.063  0.     0.   
  0.    26.063  0.   
  0.     0.    26.063
H C H H C O N H C H C H H H C O N H C H H H
1 1 1 1 1 1 1 1 1 1 1 1 1 1 1 1 1 1 1 1 1 1
Cartesian
-20.77660375 -17.84902902  -8.17765655
  -2.12455933   1.82530958   3.50846521
 -54.76834301  58.49378663  30.03756954
 -60.87515241  -2.41860395 -36.70905168
  -3.53544843   1.48707891   3.66049945
   1.22239178   2.09351777   0.49585405
  -0.37438613  -4.86360885  -4.0588593 
 -52.91491811  25.68978678   9.54860149
   5.3919986    0.37306745   0.34564924
 -35.7503167  -21.6772318   -7.46754663
   6.54131628   1.22116948   0.66265607
   8.64266259 -12.46661687  57.33805343
   0.94133705 -64.71059567 -17.99487159
  25.03420121 -36.52671457  -1.68461211
   5.37201763   1.86681388   0.81838757
   4.23458177   1.41718402   2.76902593
   0.51884124  -2.0409543   -7.40673116
 -29.34062145   4.97121878 -21.4578595 
   6.80208774   3.62307441  -1.61285288
 -19.87470028 -32.07698997  29.15664971
 -38.2452343    9.961142    13.04675045
 -27.7554361    5.49780644 -22.43304135
