AD_withoutwater
1.00000
26.063  0.     0.   
  0.    26.063  0.   
  0.     0.    26.063
H C H H C O N H C H C H H H C O N H C H H H
1 1 1 1 1 1 1 1 1 1 1 1 1 1 1 1 1 1 1 1 1 1
Cartesian
-27.33529337 -21.86448806  -8.17585092
   2.47558632  -1.77999721   3.54225805
 -54.29234894  75.28385106  23.67910212
 -66.68826689  -9.77949344 -45.79179947
  -6.3192786    3.76975174   5.06836247
   2.5783014    1.44067131   0.38839539
  -1.41967341  -9.13804573  -4.41189986
 -76.0764823   35.23952375   5.82269179
   5.92087647   3.81868873   2.6205966 
 -62.83248716 -44.05088748 -18.13829143
   6.71876353   2.5377187    0.36478382
   9.0004885   -5.98119357  63.0280697 
  -6.67415603 -91.17127728 -27.23997982
  36.65408409 -53.18297424  -2.48194538
   6.66772313   3.41290667   1.38814687
   3.9864744    2.27703298   4.22550682
  -0.92370638  -3.35456349 -12.41503494
 -30.1067149   22.86769163 -27.10360851
  13.8880222    8.16871575  -1.83277878
 -32.66019477 -41.3888836   46.34060553
 -60.39801588   4.59873084  38.61575471
 -47.18971203   7.09944438 -17.20341744
