AD_withoutwater
1.00000
26.063  0.     0.   
  0.    26.063  0.   
  0.     0.    26.063
H C H H C O N H C H C H H H C O N H C H H H
1 1 1 1 1 1 1 1 1 1 1 1 1 1 1 1 1 1 1 1 1 1
Cartesian
-26.63225269 -21.53687248  -8.30464442
   1.78156424  -1.45341454   3.68637753
 -55.48007575  72.39112012  24.98200781
 -67.87402388  -7.37841782 -46.44465087
  -5.98761698   3.48457341   4.83040148
   2.37768622   1.59591539   0.33346521
  -1.26593287  -8.62839243  -4.41306909
 -74.23638751  34.66385759   6.3784973 
   5.65993328   3.57708077   2.0545744 
 -60.00795497 -40.57915498 -16.60895581
   6.53442837   2.43166836   0.41691316
   9.01459265  -7.04544259  63.13961996
  -5.05872116 -88.36995391 -26.14437094
  35.61868952 -51.24315975  -2.96893443
   6.89153157   2.92801146   1.79477301
   4.17295953   2.06723289   4.00914093
  -0.70945542  -3.21598062 -11.82637763
 -29.33048184  22.45018177 -26.5691806 
  13.06336513   7.62430003  -1.80060078
 -30.9424704  -40.35758451  44.36437966
 -57.74617368   6.00295991  35.02191489
 -44.03531869   6.43020993 -17.33331012
