AD_withoutwater
1.00000
26.063  0.     0.   
  0.    26.063  0.   
  0.     0.    26.063
H C H H C O N H C H C H H H C O N H C H H H
1 1 1 1 1 1 1 1 1 1 1 1 1 1 1 1 1 1 1 1 1 1
Cartesian
-28.6736852  -22.55478046  -7.90833847
   4.15350948  -1.97294379   3.16042164
 -55.53132319  78.7568571   22.81151237
 -64.16383116 -15.09142047 -44.47047063
  -7.09986997   4.3742471    5.63799497
   3.28373825   1.09985669   0.79858609
  -1.76416888 -10.3052388   -4.40374331
 -79.41287131  36.05177368   4.8599519 
   6.04632046   3.60355213   2.66352168
 -69.18358359 -51.94321317 -21.5654879 
   6.79937502   3.47934772   0.54559279
   9.1771334   -3.79969375  62.84265352
  -9.83609498 -96.60723106 -29.36969853
  39.02790993 -57.32144321  -1.38741282
   6.09212084   3.9955207    1.51002595
   3.84678039   2.75887291   4.40555384
  -1.40567052  -3.70113452 -13.73968954
 -27.79990349  27.49086262 -30.28966374
  15.66109304   9.4036684   -1.84153048
 -35.60774208 -43.90115332  49.55229514
 -66.45964922   1.41264609  46.51655138
 -55.04394777   8.78093654 -17.56866867
