AD_withoutwater
1.00000
26.063  0.     0.   
  0.    26.063  0.   
  0.     0.    26.063
H C H H C O N H C H C H H H C O N H C H H H
1 1 1 1 1 1 1 1 1 1 1 1 1 1 1 1 1 1 1 1 1 1
Cartesian
-28.43745123 -22.41241583  -7.9957984 
   3.83052092  -1.98656167   3.22842613
 -55.69148277  78.61121294  23.40297622
 -64.58833485 -14.12512601 -44.72856077
  -6.94697307   4.26112977   5.54018292
   3.17807421   1.18737649   0.75733479
  -1.69828691 -10.08718115  -4.40333352
 -78.78264865  35.88845224   5.1013413 
   6.17994996   3.62813348   2.53941312
 -67.89844507 -50.56753464 -20.84128704
   6.85796098   3.26158396   0.55445569
   9.11964318  -4.16955449  62.86993793
  -9.82942582 -96.43259133 -29.73750146
  38.57961964 -56.55774871  -1.59606438
   5.97810982   3.9418534    1.55960428
   3.83978882   2.68388543   4.34005561
  -1.31408196  -3.63732353 -13.49892643
 -27.88744355  26.08259957 -30.10377958
  15.36641187   9.1934935   -1.8616295 
 -34.938956   -42.78263526  49.92228318
 -65.32513498   2.04042694  45.03826238
 -53.61690188   8.52691741 -17.58594533
