AD_withoutwater
1.00000
26.063  0.     0.   
  0.    26.063  0.   
  0.     0.    26.063
H C H H C O N H C H C H H H C O N H C H H H
1 1 1 1 1 1 1 1 1 1 1 1 1 1 1 1 1 1 1 1 1 1
Cartesian
-26.74810889 -21.58507336  -8.27956383
   1.89541312  -1.50681427   3.66534287
 -55.24300657  72.70537635  24.69131233
 -67.68044855  -7.7669526  -46.33594405
  -6.04169364   3.53058734   4.86759983
   2.40470404   1.57086719   0.33339008
  -1.29022157  -8.70922319  -4.41356238
 -74.5655579   34.76818842   6.28044229
   5.70518592   3.62655467   2.1327811 
 -60.46840407 -41.13083898 -16.85554033
   6.55040451   2.4448494    0.39291767
   9.01456318  -6.86997776  63.12907483
  -5.31929877 -88.83241738 -26.31827786
  35.80289443 -51.56798966  -2.90813861
   6.86902569   3.00560682   1.75862176
   4.14550224   2.09612289   4.05050539
  -0.74428936  -3.23736592 -11.92177861
 -29.50669904  22.68957963 -26.56744516
  13.19621866   7.71004288  -1.80572069
 -31.21586487 -40.52093691  44.67798139
 -58.17352733   5.7691108   35.61680814
 -44.52662736   6.52678257 -17.29313078
