AD_withoutwater
1.00000
26.063  0.     0.   
  0.    26.063  0.   
  0.     0.    26.063
H C H H C O N H C H C H H H C O N H C H H H
1 1 1 1 1 1 1 1 1 1 1 1 1 1 1 1 1 1 1 1 1 1
Cartesian
 -31.94432114  -22.51519845  -12.24085837
    7.74646099   -1.88410336    3.3905976 
  -53.6924415    85.86675266   21.86476614
  -59.28675099  -23.53827345  -41.8753319 
   -8.45963256    5.46697268    6.39890321
    3.78448932    0.73660481    0.44087602
   -2.40450878  -12.21210362   -4.32816509
  -86.32874426   36.64951186    4.47349521
    5.6217268     3.80984724    2.57468847
  -84.52621018  -60.75801906  -28.21652444
    6.24399894    4.72082271    1.67224511
   10.12437008   -0.50713166   62.39952183
  -12.45147837 -102.29953354  -29.08437412
   43.31264762  -64.12522167    0.71154247
    5.91728357    4.10202517    2.03305343
    4.55343061    3.1061278     4.37189029
   -2.28976041   -4.30687108  -15.90788026
  -26.01278854   33.02055705  -31.24139578
   18.36357793   11.64147112   -1.50595689
  -40.87178246  -52.08542564   48.95483448
  -77.49614199   -2.49631314   58.35354764
  -67.40615843   10.01956734  -19.1999209 
