AD_withoutwater
1.00000
26.063  0.     0.   
  0.    26.063  0.   
  0.     0.    26.063
H C H H C O N H C H C H H H C O N H C H H H
1 1 1 1 1 1 1 1 1 1 1 1 1 1 1 1 1 1 1 1 1 1
Cartesian
 -37.69248713  -23.7800582   -15.60355818
   15.36473951   -1.66513992    4.07567919
  -54.91847081   98.32084983   22.00997012
  -59.97735437  -38.51432969  -29.51937313
  -11.07614152    8.44372864    6.51100092
    4.84088365    1.82306392    0.105907  
   -3.53138742  -17.32215913   -3.75441861
  -96.23317521   35.46924585    1.91561795
    5.5728007     5.97861216    2.54783975
 -115.72304025  -80.79063569  -38.49110571
    5.1479241     5.25969612    2.31776472
   14.09767585    8.19563277   62.2319028 
   -8.14723168 -104.30829623  -31.11716072
   45.37154455  -78.73604534   12.1350063 
    4.98414357    5.18215329    3.2692976 
    5.52697067    1.32602612    4.70679541
   -4.38352688   -5.410968    -20.42130814
  -29.50365997   46.5602343   -29.88210818
   23.27915462   16.45512156   -0.94305112
  -55.99594524  -58.39117655   47.60450375
  -86.62373294  -10.6893535    73.63288181
  -82.14952961    0.6694005   -23.60558739
