AD_withoutwater
1.00000
26.063  0.     0.   
  0.    26.063  0.   
  0.     0.    26.063
H C H H C O N H C H C H H H C O N H C H H H
1 1 1 1 1 1 1 1 1 1 1 1 1 1 1 1 1 1 1 1 1 1
Cartesian
-23.91535344 -20.20826267  -8.58328878
  -0.56627937   0.10206347   3.83616756
 -54.97266949  65.47650178  27.14854068
 -70.39750321   0.2543678  -47.16754612
  -4.70507918   2.54578213   4.15166329
   1.47801653   1.88264682   0.29281952
  -0.75133792  -6.75655645  -4.28170115
 -63.80751654  30.59433522   8.37120297
   5.98292967   2.8578609    1.96023647
 -48.92684172 -29.53307406 -11.10570786
   6.7353346    1.40512742   0.94805792
   8.94987515 -11.07205776  63.12283215
   0.84385933 -76.94014637 -22.46962595
  30.52393373 -43.69507392  -2.32816923
   5.54000093   1.71315162   1.16586935
   4.80396946   1.48272381   3.02905496
   0.00976244  -2.68441139  -9.66207388
 -30.23378233  14.57203922 -23.548318  
  10.01797954   5.65246651  -1.69994423
 -25.18436397 -36.45809688  36.72112702
 -48.34762939  10.11801386  20.67668886
 -35.31712928   5.07623921 -19.59773252
