AD_withoutwater
1.00000
26.063  0.     0.   
  0.    26.063  0.   
  0.     0.    26.063
H C H H C O N H C H C H H H C O N H C H H H
1 1 1 1 1 1 1 1 1 1 1 1 1 1 1 1 1 1 1 1 1 1
Cartesian
-1.94407659  3.54795731 -0.69580156
 -2.1128051   2.64124326 -0.13242356
 -3.02967004  2.11211794 -0.44267974
 -2.33564932  2.95276667  0.89959723
 -0.95930853  1.67326101 -0.13227211
  0.04992706  1.94425866 -0.83651359
 -1.0755241   0.55013845  0.61981456
 -1.97399994  0.37789392  1.04859792
  0.09908282 -0.17001823  1.09718626
  0.92538019  0.60156943  1.14983752
 -0.16061198 -0.81149264  2.4032502 
  0.67352635 -1.40468574  2.72585038
 -0.99411905 -1.54393058  2.30941865
 -0.36849045 -0.14472572  3.1791593 
  0.64941825 -1.17721535  0.07516364
  0.61104787 -2.37430229  0.29538826
  1.25109065 -0.62528139 -1.03686382
  1.06162896  0.36069094 -1.02443599
  1.8063103  -1.56162237 -1.99685951
  2.67302751 -2.07451141 -1.60811833
  1.01950531 -2.28396295 -2.28681407
  2.1858318  -1.09134403 -2.90691382
