AD_withoutwater
1.00000
26.063  0.     0.   
  0.    26.063  0.   
  0.     0.    26.063
H C H H C O N H C H C H H H C O N H C H H H
1 1 1 1 1 1 1 1 1 1 1 1 1 1 1 1 1 1 1 1 1 1
Cartesian
 -37.80717236  -24.12485448  -15.2530091 
   16.15861522   -1.66647357    4.12322808
  -54.19226468   99.2243895    22.53365135
  -61.1240914   -38.89666745  -27.58215439
  -11.30791283    8.7606742     6.36153805
    5.0271157     1.91010127    0.19248741
   -3.68100944  -17.99956126   -3.70543848
  -96.035846     36.29409671    1.64601555
    5.21319132    6.0013912     2.55500652
 -118.62629837  -82.39628148  -39.96456693
    5.2170268     5.27544032    2.3872246 
   14.17689799    8.31618242   63.56337362
   -8.92606983 -105.24002638  -32.94740237
   44.41786559  -80.31941886   13.54127351
    4.98680963    5.73901454    3.33127119
    5.56601645    1.01916253    4.69012086
   -4.64667418   -5.54894602  -20.88840467
  -30.33071798   47.46230492  -30.08591173
   23.70761482   16.96731363   -0.87716262
  -57.80110091  -56.25603338   46.94979048
  -85.5835645   -12.07550487   75.20463729
  -81.88396905   -0.12687359  -22.8054496 
