AD_withoutwater
1.00000
26.063  0.     0.   
  0.    26.063  0.   
  0.     0.    26.063
H C H H C O N H C H C H H H C O N H C H H H
1 1 1 1 1 1 1 1 1 1 1 1 1 1 1 1 1 1 1 1 1 1
Cartesian
-1.85027961  3.09328048 -1.74828731
 -2.05120572  2.36698206 -0.97860756
 -2.77960857  1.59541091 -1.27041666
 -2.53693393  2.91443712 -0.11675369
 -0.77894146  1.66643331 -0.48483695
  0.36630205  2.00676035 -0.76312881
 -1.00237452  0.65828379  0.39601726
 -1.94541151  0.29906728  0.5500187 
 -0.00790086 -0.04219932  1.19250534
  0.84983922  0.60784862  1.49035753
 -0.54670077 -0.61388282  2.5081704 
  0.28661431 -1.08483494  3.0209781 
 -1.28157902 -1.33827067  2.32508435
 -0.99045764  0.12735175  3.18274968
  0.71199692 -1.13088641  0.36446516
  0.76435906 -2.25873316  0.81837754
  1.1751489  -0.77430455 -0.84090843
  1.25038689  0.18601471 -1.13964634
  1.53236654 -1.75688748 -1.84112509
  2.09845406 -2.62949131 -1.43683365
  0.65710583 -2.09393199 -2.41296191
  2.23396833 -1.28127551 -2.54309816
