AD_withoutwater
1.00000
26.063  0.     0.   
  0.    26.063  0.   
  0.     0.    26.063
H C H H C O N H C H C H H H C O N H C H H H
1 1 1 1 1 1 1 1 1 1 1 1 1 1 1 1 1 1 1 1 1 1
Cartesian
-22.34596286 -19.11479683  -8.38424993
  -1.49144735   1.03047697   3.65220149
 -56.50620767  62.0647501   29.80361373
 -65.26637569  -1.17265926 -41.64089096
  -4.01393015   2.02295105   3.8761938 
   1.28640667   1.96944372   0.46356575
  -0.54505022  -5.745495    -4.15903173
 -58.08782066  27.91027193   9.40186867
   5.8145657    1.56960804   0.98888455
 -41.95684329 -25.33349072  -9.0863266 
   6.63539548   1.2255977    0.86141422
   8.9690034  -13.31321747  63.13964439
   1.05791272 -70.42152341 -19.95178733
  27.64581275 -39.88032472  -1.94978892
   5.58208273   1.95287478   0.76738428
   4.32033463   1.35249564   3.06933003
   0.28676553  -2.32580784  -8.4882615 
 -28.7979807    9.56931847 -23.66650892
   8.3626894    4.58881552  -1.66841536
 -22.38172533 -34.17290568  32.65032564
 -43.15759328  11.5539929   13.49443031
 -30.73821516   4.62911175 -21.47720822
