AD_withoutwater
1.00000
26.063  0.     0.   
  0.    26.063  0.   
  0.     0.    26.063
H C H H C O N H C H C H H H C O N H C H H H
1 1 1 1 1 1 1 1 1 1 1 1 1 1 1 1 1 1 1 1 1 1
Cartesian
-21.28994131 -18.23600299  -8.25495371
  -1.98836077   1.56946051   3.56214719
 -55.20283603  60.31078719  30.10787213
 -62.2702533   -1.99936525 -38.30662906
  -3.62330792   1.64322814   3.71909446
   1.26349406   2.04339201   0.51832269
  -0.42500736  -5.14646425  -4.08718803
 -54.5756519   26.38818559   9.55959537
   5.51044047   0.68024011   0.57545936
 -37.75458613 -22.84215935  -7.96249676
   6.59085362   1.21194828   0.73474685
   8.76316245 -12.76574097  59.26457595
   0.9901942  -66.52922365 -18.59225464
  25.87802347 -37.59342541  -1.79723509
   5.3433819    1.97015184   0.93463286
   4.31945819   1.42107423   2.70264434
   0.44500777  -2.13012283  -7.76199599
 -29.9180992    5.93704954 -22.43236537
   7.29660398   3.90604975  -1.61831941
 -20.688469   -32.78214741  30.28406184
 -39.82741153  10.49081248  13.13034132
 -28.18840565   5.43086538 -22.02531042
