AD_withoutwater
1.00000
26.063  0.     0.   
  0.    26.063  0.   
  0.     0.    26.063
H C H H C O N H C H C H H H C O N H C H H H
1 1 1 1 1 1 1 1 1 1 1 1 1 1 1 1 1 1 1 1 1 1
Cartesian
-1.20170302  2.30779638 -3.02274844
 -1.35747414  2.43040241 -1.97210046
 -2.43422732  2.18512015 -1.73720814
 -1.23075281  3.53827469 -1.75381042
 -0.4802836   1.55939357 -1.14493281
  0.62029609  1.21849373 -1.58098718
 -0.91911839  0.96924497  0.01131443
 -1.90639345  0.78700587  0.12768994
 -0.05828873  0.36441662  1.04019434
  0.84947918  0.91672297  1.00394913
 -0.72697127  0.47432751  2.37910421
 -0.06428443  0.31229635  3.1947941 
 -1.56295459 -0.22511737  2.4514715 
 -1.1319645   1.47244736  2.44697709
  0.25698945 -1.10281883  0.76863165
 -0.2179343  -1.99733971  1.42527946
  1.08659618 -1.29638963 -0.27474808
  1.29017308 -0.52157948 -0.92083644
  1.93862045 -2.47102945 -0.324418  
  3.00738621 -2.16305825 -0.32942177
  1.75491608 -2.98943821  0.62848052
  1.71200617 -3.087546   -1.19372521
