AD_withoutwater
1.00000
26.063  0.     0.   
  0.    26.063  0.   
  0.     0.    26.063
H C H H C O N H C H C H H H C O N H C H H H
1 1 1 1 1 1 1 1 1 1 1 1 1 1 1 1 1 1 1 1 1 1
Cartesian
-2.7414274   2.84977966 -0.40558832
 -2.54471712  2.10330249  0.38318711
 -3.2710682   1.31153615  0.29527531
 -2.68845109  2.58033925  1.3709377 
 -1.14340122  1.52807816  0.31220463
 -0.29341113  2.00532156 -0.39180925
 -0.93740705  0.38973756  1.1104463 
 -1.58843893  0.17024697  1.86209002
  0.33738963 -0.30960973  1.1035294 
  1.06620076  0.46146665  1.26344893
  0.37964776 -1.37887709  2.1766697 
  1.37260367 -1.84993936  2.3016618 
 -0.32632634 -2.17931349  1.98886685
  0.18621297 -0.92902195  3.15545914
  0.72677319 -0.99188756 -0.27350446
  0.40597557 -2.15071006 -0.47680177
  1.3830795  -0.20129744 -1.20054413
  1.09803852  0.77261901 -1.30534443
  1.88446862 -0.91790148 -2.36091588
  2.12366389 -1.89109344 -1.9784284 
  1.10072119 -1.01698505 -3.12323174
  2.73276496 -0.38751366 -2.77490113
