AD_withoutwater
1.00000
26.063  0.     0.   
  0.    26.063  0.   
  0.     0.    26.063
H C H H C O N H C H C H H H C O N H C H H H
1 1 1 1 1 1 1 1 1 1 1 1 1 1 1 1 1 1 1 1 1 1
Cartesian
 -34.2062971   -21.41763931  -15.48483191
   10.1793513    -1.72901777    3.66332157
  -51.27475047   89.89431574   21.02281899
  -56.0204396   -30.20370666  -40.57601907
   -9.28292078    6.31714242    6.78945453
    4.22250938    1.1110281     0.57315687
   -2.83964766  -13.39265177   -4.18159511
  -91.13021384   36.50192495    3.54156926
    6.19484994    4.47880463    1.73271757
  -94.64933205  -67.36632537  -31.63725311
    5.69256221    3.77374378    2.9273527 
   10.81228539    2.13623731   62.28679025
   -9.74865957 -102.39207366  -28.44609225
   45.62283712  -68.36118061    3.65608464
    5.45693002    5.30133386    2.00114611
    4.69327363    2.46628787    4.36199029
   -2.94741982   -4.61550257  -17.27577335
  -26.40817334   36.57159641  -30.52390919
   20.06886796   13.23538402   -1.37722113
  -48.74609304  -60.54179685   48.43187461
  -84.2635803    -3.78148249   64.58021637
  -74.8312507     9.1484966   -20.90934521
