AD_withoutwater
1.00000
26.063  0.     0.   
  0.    26.063  0.   
  0.     0.    26.063
H C H H C O N H C H C H H H C O N H C H H H
1 1 1 1 1 1 1 1 1 1 1 1 1 1 1 1 1 1 1 1 1 1
Cartesian
-28.23277592 -22.29178226  -8.03650077
   3.54462959  -1.99442272   3.30000402
 -55.48023508  78.52735603  23.68924419
 -64.98569867 -13.21984503 -44.94223287
  -6.8053823    4.16256387   5.44678745
   3.05405596   1.24812179   0.69201296
  -1.64375159  -9.88976846  -4.40403031
 -78.24619003  35.68401908   5.46976699
   6.27374759   3.64285997   2.47741071
 -66.8341969  -49.24709746 -20.25607213
   6.83501428   3.10883769   0.62722281
   9.06672093  -4.51361336  62.89019911
  -9.14901256 -95.22684631 -29.09082707
  38.16122127 -55.86015407  -1.78079069
   6.00826419   3.87686534   1.49139626
   3.84088386   2.6111472    4.30147177
  -1.23050115  -3.58059958 -13.27785496
 -28.28609848  24.77908182 -29.70888803
  15.09798736   8.98674024  -1.88250283
 -34.98602658 -42.64739521  49.32213043
 -64.29521167   2.58983032  43.71153681
 -52.27559158   8.34038124 -17.739623  
