AD_withoutwater
1.00000
26.063  0.     0.   
  0.    26.063  0.   
  0.     0.    26.063
H C H H C O N H C H C H H H C O N H C H H H
1 1 1 1 1 1 1 1 1 1 1 1 1 1 1 1 1 1 1 1 1 1
Cartesian
 -36.32533124  -22.35251966  -16.44941189
   12.95278037   -1.66760136    3.91266316
  -53.14052359   92.27359943   21.94841352
  -59.77376907  -33.53068836  -35.20147776
  -10.23138236    7.48851412    6.76025135
    4.42224729    1.3107443     0.27582095
   -3.10231987  -15.21448482   -3.94103716
  -94.37156177   35.71837354    2.49741364
    6.16055158    5.0683046     2.4822778 
 -106.0118938   -74.67250286  -35.07190464
    4.88367279    5.39929708    2.41176149
   12.07166662    5.80457509   61.89213148
   -7.17314836 -102.64544176  -27.81886063
   46.19955489  -74.0027595     8.20336795
    5.40029921    4.16251452    3.13460179
    5.27449841    2.34300865    4.14736648
   -3.68492851   -5.01448908  -18.96680707
  -28.09041002   41.43037382  -29.09819471
   21.89736987   15.01109117   -1.2137165 
  -54.01490476  -61.78834652   47.61030898
  -84.75047037   -9.11089145   69.52112256
  -80.80780173    4.03754536  -24.65307016
