AD_withoutwater
1.00000
26.063  0.     0.   
  0.    26.063  0.   
  0.     0.    26.063
H C H H C O N H C H C H H H C O N H C H H H
1 1 1 1 1 1 1 1 1 1 1 1 1 1 1 1 1 1 1 1 1 1
Cartesian
 -35.64272367  -21.43912924  -16.9340808 
   12.05166566   -1.69715481    3.84274676
  -53.0460055    92.73558578   22.13848482
  -59.44654838  -33.0984849   -36.13251521
   -9.9080672     7.0792451     6.84337688
    4.31753801    1.12381241    0.31056885
   -2.95377117  -14.41897383   -3.99219082
  -93.5276137    35.98070688    2.77183047
    6.34549884    4.80532887    2.20228183
 -102.3197695   -72.25752787  -33.89990297
    5.02057711    4.94241521    2.75591258
   11.4263865     4.52146368   62.15098471
   -7.99655035 -102.55816128  -28.03698505
   46.0249002   -72.06215913    6.67725902
    5.37947086    4.37149014    2.97117915
    5.1384374     2.60751415    4.02640773
   -3.44202869   -4.87705867  -18.41022047
  -26.59157585   40.21758895  -30.50146647
   21.30343159   14.39396669   -1.26446595
  -53.4104732   -65.47159614   47.57984534
  -83.79306278   -6.78992039   67.08078734
  -79.10043838    5.87611488  -23.53952058
