AD_withoutwater
1.00000
26.063  0.     0.   
  0.    26.063  0.   
  0.     0.    26.063
H C H H C O N H C H C H H H C O N H C H H H
1 1 1 1 1 1 1 1 1 1 1 1 1 1 1 1 1 1 1 1 1 1
Cartesian
 -7.55553197  -2.22697749  -0.2809793 
  -2.43174486   0.61048337   1.47005674
  -9.91055689   6.53993767   6.89123461
 -11.13137189   0.66941499  -2.24429254
  -1.21932679   0.03807793   0.56457638
  -1.15000009   2.44690092   1.39130216
  -0.67390413  -0.44474472   0.2946277 
 -10.29342853   4.12720053   2.55518839
   0.76413102  -1.10021954   0.286454  
   1.58945548  -1.48417157   0.91685132
   1.50327404  -1.06985933   1.80356248
   2.70855282  -4.44505533   7.65128361
   1.25163228 -11.06621052  -2.68983973
   5.16214523  -4.82102166   0.73585488
   1.27479745  -0.14171172  -0.78452356
   3.62980977   0.23408745   0.1496472 
   0.22666598  -0.49183539  -1.51247724
  -6.33091104   1.0840718   -7.88897621
   1.26017301   0.24937491  -3.48727679
  -1.63946571  -3.39009344   0.55301424
  -2.99956279   1.83099752  -2.36584638
  -4.9786572    1.02358514  -5.98449516
