AD_withoutwater
1.00000
26.063  0.     0.   
  0.    26.063  0.   
  0.     0.    26.063
H C H H C O N H C H C H H H C O N H C H H H
1 1 1 1 1 1 1 1 1 1 1 1 1 1 1 1 1 1 1 1 1 1
Cartesian
 -8.18077908  -2.98093965  -0.72849026
  -2.2050084    0.54604897   1.51724679
 -12.16902115   8.84400672   8.86995187
 -13.43802458   0.47556612  -3.60843535
  -1.62734878   0.38094426   0.73894566
  -1.18537741   2.52380376   1.43679007
  -0.50455527  -0.47824866   0.11251718
 -12.04805067   5.10860786   2.96534229
   1.05763011  -1.23379008   0.31079539
   1.09961351  -1.24915985   0.45643662
   1.59967129  -0.94377049   1.54760675
   2.88745316  -5.06972182   9.146718  
   1.31664202 -13.31880768  -3.62616868
   6.0907458   -6.13130325   0.46196838
   1.44399954  -0.28178708  -0.68984953
   3.73503416   0.34692253   0.22044348
   0.41266532  -0.63515289  -1.70345916
  -6.66749016   1.48886561  -8.90600192
   1.32971056   0.24801369  -3.34195489
  -2.52177773  -4.90765613   1.75895549
  -4.72515688   2.33308995  -1.71138111
  -7.13500717   1.15378981  -6.62461716
