AD_withoutwater
1.00000
26.063  0.     0.   
  0.    26.063  0.   
  0.     0.    26.063
H C H H C O N H C H C H H H C O N H C H H H
1 1 1 1 1 1 1 1 1 1 1 1 1 1 1 1 1 1 1 1 1 1
Cartesian
-24.82858145 -20.71405299  -8.53185132
   0.14151514  -0.49534499   3.83710235
 -55.08568876  69.57277727  27.03560503
 -70.67266466  -1.27137288 -47.95718126
  -5.14004014   2.86942373   4.350363  
   1.79187675   1.80916473   0.28066424
  -0.91819425  -7.3821111   -4.34496698
 -67.83723496  32.19941412   7.85288779
   6.04105558   3.01009062   1.96835761
 -52.77445081 -32.68929095 -12.82525693
   7.00958397   1.79764845   0.64455351
   8.96543874  -9.73830217  63.12802014
  -0.94690442 -80.68302434 -23.85106449
  32.32894614 -46.07671888  -2.83271199
   5.69377684   2.09558779   1.38773031
   4.5333598    1.62825757   3.5214009 
  -0.21664556  -2.86896453 -10.38291723
 -30.05042207  15.57002758 -24.96548455
  11.03937      6.31900097  -1.71980643
 -27.00464968 -37.87802786  39.37255707
 -51.61844388   8.88350885  25.49458964
 -37.68679711   5.39124114 -18.69183449
