AD_withoutwater
1.00000
26.063  0.     0.   
  0.    26.063  0.   
  0.     0.    26.063
H C H H C O N H C H C H H H C O N H C H H H
1 1 1 1 1 1 1 1 1 1 1 1 1 1 1 1 1 1 1 1 1 1
Cartesian
-27.8524239  -22.0881926   -8.10259995
   3.03144271  -1.95144882   3.4170396 
 -54.73054767  77.46594434  23.68835938
 -65.77681387 -11.59556143 -45.33822105
  -6.56711614   3.98132507   5.26859181
   2.80536478   1.33066597   0.53601676
  -1.53681193  -9.5335172   -4.40725509
 -77.29670238  35.55843768   5.56648913
   6.21302004   3.71312689   2.78833298
 -64.94585364 -46.80483086 -19.25092685
   6.82438753   2.76954649   0.47338993
   9.01480358  -5.19851359  62.94021982
  -7.98201189 -93.28699654 -28.05842513
  37.43960059 -54.60334419  -2.11576468
   6.25178799   3.78210196   1.22225008
   3.8789533    2.46680178   4.28135106
  -1.08526774  -3.47426622 -12.87375299
 -29.34372139  23.34781    -28.46806042
  14.52691358   8.60921184  -1.86344782
 -33.9948622  -42.12075744  47.81109151
 -62.42435858   3.55278132  41.30271666
 -49.79861215   7.71672245 -17.39037779
