AD_withoutwater
1.00000
26.063  0.     0.   
  0.    26.063  0.   
  0.     0.    26.063
H C H H C O N H C H C H H H C O N H C H H H
1 1 1 1 1 1 1 1 1 1 1 1 1 1 1 1 1 1 1 1 1 1
Cartesian
 -32.97461069  -22.0218641   -13.6572689 
    8.77711481   -1.80029231    3.50570397
  -52.88658442   86.21803571   21.35857294
  -57.95540909  -25.94589218  -41.17426251
   -8.79695525    5.79992206    6.5596587 
    3.88822242    0.74944008    0.3951669 
   -2.58735229  -12.72037216   -4.29131595
  -88.56313937   36.63602381    4.20666893
    5.7819081     4.05045717    2.43740684
  -88.90805423  -63.39899954  -29.78814494
    5.89052203    4.18140139    2.5043257 
   10.4491943     0.55973187   62.36323769
  -11.2227434  -102.36336993  -28.81091183
   44.58840849  -65.92891039    1.59295274
    5.72022124    4.67992778    2.02186421
    4.83760398    3.0694548     4.07944443
   -2.55430669   -4.46321898  -16.49433623
  -25.91545049   35.88125117  -30.77954876
   19.08116553   12.30342552   -1.41937782
  -44.22309034  -55.65637236   48.70632144
  -80.47135049   -3.2036261    61.23000671
  -70.59165498    9.87905637  -19.81608337
