AD_withoutwater
1.00000
26.063  0.     0.   
  0.    26.063  0.   
  0.     0.    26.063
H C H H C O N H C H C H H H C O N H C H H H
1 1 1 1 1 1 1 1 1 1 1 1 1 1 1 1 1 1 1 1 1 1
Cartesian
 -31.54177302  -22.57854767  -11.55863795
    7.31715447   -1.9081201     3.32529789
  -53.50653438   85.66099167   21.78331166
  -59.83670909  -22.68263018  -42.35021332
   -8.31249929    5.33829613    6.33871054
    3.78207231    0.79870647    0.53319627
   -2.33210407  -12.00116362   -4.3361164 
  -85.43770252   36.62886712    4.50561639
    5.57338046    3.73640822    2.55398814
  -82.76963612  -59.85512635  -27.48510397
    6.32602442    4.83473788    1.38150355
   10.00289926   -0.90110033   62.45138931
  -12.57751795 -101.91996352  -29.14305001
   42.77120069  -63.30320026    0.49393924
    5.99796118    3.86805209    2.04568561
    4.44100872    3.09575115    4.43626029
   -2.1845494    -4.24477404  -15.66979885
  -26.60747802   31.91756682  -31.12355337
   18.07251027   11.37855361   -1.55357717
  -39.89347523  -50.93602491   49.06816215
  -76.26386964   -2.20104068   57.15588191
  -66.08895365   10.04507516  -18.96325734
