AD_withoutwater
1.00000
26.063  0.     0.   
  0.    26.063  0.   
  0.     0.    26.063
H C H H C O N H C H C H H H C O N H C H H H
1 1 1 1 1 1 1 1 1 1 1 1 1 1 1 1 1 1 1 1 1 1
Cartesian
-29.49189369 -22.94288287  -8.1066202 
   5.197011    -1.93663554   3.05679116
 -53.74399215  80.66154226  20.98950913
 -62.79163895 -17.98505786 -43.7706103 
  -7.5460543    4.69164865   5.90746467
   3.51824564   0.87925323   0.78087333
  -1.96960516 -10.91230787  -4.38854904
 -81.37297655  36.33681118   4.57327443
   5.68050891   3.73051898   2.78685004
 -73.84219713 -55.26779354 -23.84576478
   6.63040096   4.09033109   0.33046311
   9.39836649  -2.73396112  62.76711915
 -10.48121639 -98.36830819 -28.70480121
  40.40522936 -59.45496894  -0.65959797
   6.46459325   3.96478459   1.82601637
   3.87850599   2.90203684   4.61421579
  -1.67512585  -3.90259363 -14.43666844
 -28.68801097  30.13483654 -30.29069429
  16.5667101   10.09068047  -1.75243072
 -37.6220159  -46.55256535  48.8876305 
 -69.80269317  -0.4483154   50.79589236
 -59.09645977   9.55931667 -17.86722435
