AD_withoutwater
1.00000
26.063  0.     0.   
  0.    26.063  0.   
  0.     0.    26.063
H C H H C O N H C H C H H H C O N H C H H H
1 1 1 1 1 1 1 1 1 1 1 1 1 1 1 1 1 1 1 1 1 1
Cartesian
 -33.65271245  -21.66945572  -14.60399837
    9.5773968    -1.75278714    3.58846805
  -51.55980623   87.87204383   20.8849071 
  -56.86730283  -28.12893331  -40.93570782
   -9.0761768     6.0921697     6.69358124
    4.07925917    0.95601955    0.50075279
   -2.72540076  -13.1176956    -4.23545923
  -90.1211772    36.61081718    3.83473111
    6.02815249    4.30233353    1.99241159
  -92.16989865  -65.65399322  -30.85465978
    5.84728463    3.96515288    2.69565446
   10.65566961    1.4213682    62.33428908
  -10.34962565 -102.34981607  -28.59592999
   45.26397048  -67.30029462    2.79084335
    5.55863155    5.07785604    1.99366118
    4.69899395    2.66242173    4.31312027
   -2.76454934   -4.5607646   -16.94895898
  -26.68132198   36.81501902  -30.35201227
   19.64378106   12.83977063   -1.39837872
  -46.7840976   -58.44236108   48.55450752
  -82.76804184   -3.65279768   63.39278461
  -73.04436948    9.59331407  -20.33076321
