AD_withoutwater
1.00000
26.063  0.     0.   
  0.    26.063  0.   
  0.     0.    26.063
H C H H C O N H C H C H H H C O N H C H H H
1 1 1 1 1 1 1 1 1 1 1 1 1 1 1 1 1 1 1 1 1 1
Cartesian
 -32.5387097   -22.37010997  -13.17870796
    8.31263609   -1.83622694    3.45733274
  -53.53638686   85.92121826   21.69320249
  -58.53357024  -24.71679801  -41.30249119
   -8.64228136    5.64367826    6.4849048 
    3.8196249     0.70300757    0.38854877
   -2.5079935   -12.49227668   -4.30925866
  -87.56627367   36.64707985    4.36497714
    5.76294527    4.00208586    2.45010473
  -86.94626385  -62.13646944  -29.12411055
    6.06110466    4.44661857    2.12323047
   10.29833041    0.07094724   62.36895181
  -11.75519628 -102.32986254  -28.93540576
   44.06720283  -65.17068553    1.05088316
    5.80038401    4.41243217    2.04331007
    4.68471903    3.07175936    4.26782873
   -2.43095251   -4.38890279  -16.2309928 
  -25.63597392   34.71701989  -31.11005869
   18.75523614   11.99886804   -1.44597482
  -42.72706234  -54.05532615   48.80195494
  -79.13753695   -2.8829528    59.95469002
  -69.15312561    9.98019016  -19.52956881
