AD_withoutwater
1.00000
26.063  0.     0.   
  0.    26.063  0.   
  0.     0.    26.063
H C H H C O N H C H C H H H C O N H C H H H
1 1 1 1 1 1 1 1 1 1 1 1 1 1 1 1 1 1 1 1 1 1
Cartesian
 -34.75376619 -140.21886718  -11.93852316
    6.15416757  -12.48168192    4.72059373
  -44.9061052    -3.48475458  -28.29275434
   60.00937199  115.69136614   52.76938868
    3.41291968    6.52290539   -0.79215348
   -2.09100845   -2.97137618   -3.38604782
    6.46829583    4.59794507   -0.49978692
  -81.02264516  101.47820329   26.85166911
    4.51868707    0.56805525   -1.2362123 
  -56.34660376   48.09194315   74.22824741
   -7.5613631   -17.57256744    7.23023603
  -20.40746463  -27.2324799    10.39556048
   -0.82363083   -8.36328361    0.21458484
    3.98284626    1.75151724   56.6821619 
    4.60419485    1.33792201   -2.0210284 
    2.71479902    2.09798652   -2.4734972 
    4.24247174    5.23574191   -1.12634941
  -36.97442718    2.63340708   -6.97670032
    5.76667399    3.67627132   -4.69613654
  -30.77698277  -28.28647038  -47.95990717
  -77.94392956   25.89410426  -34.35780058
  -37.25707574    3.70564958  -10.65193585
