AD_withoutwater
1.00000
26.063  0.     0.   
  0.    26.063  0.   
  0.     0.    26.063
H C H H C O N H C H C H H H C O N H C H H H
1 1 1 1 1 1 1 1 1 1 1 1 1 1 1 1 1 1 1 1 1 1
Cartesian
-18.33276382 -43.53468704  -3.72996854
  -0.05580598  -1.03232992  -1.25701123
 -13.07959714  -1.75242281  -4.35723548
  10.54543988  37.51464375  18.05237317
   0.22137528  -0.0497344    0.43489054
  -0.9713385    1.58640909   1.75158415
   1.30365109   0.46579812   0.04373387
 -32.13251583  28.72616684   7.47158955
   2.77374062   0.55547226  -0.13939397
 -11.68804716  25.35943059  29.24550626
  -0.83543294  -6.1568155    3.05998083
  -3.96976035  -3.19142297   1.83427478
  -0.34966467  -0.2420045    2.03627415
  -1.57571198  -1.20583132   5.39567319
   2.51564129  -0.43315578   0.10857068
   3.70811188   0.26868995   0.12183703
   1.20871323   0.66142741  -1.4355086 
 -14.55392026   1.65906726  -6.95916813
  -0.3360908   -0.02809577  -3.43303349
  -9.41481684 -12.03035207 -19.41250345
 -18.7130648    7.09553359 -11.54275834
 -13.33391342   2.16699709 -10.2172895 
