AD_withoutwater
1.00000
26.063  0.     0.   
  0.    26.063  0.   
  0.     0.    26.063
H C H H C O N H C H C H H H C O N H C H H H
1 1 1 1 1 1 1 1 1 1 1 1 1 1 1 1 1 1 1 1 1 1
Cartesian
-22.62363798 -19.33617336  -8.42749989
  -1.3372048    0.87565627   3.68294677
 -56.60652755  62.30806571  29.47449385
 -66.13418062  -0.9356762  -42.58478885
  -4.13847601   2.11552901   3.92182851
   1.2842246    1.95249547   0.42824667
  -0.57819325  -5.91737788  -4.17841997
 -59.08564102  28.35648202   9.28823262
   5.86978565   1.81243524   1.13962159
 -43.1438104  -26.03841377  -9.41734594
   6.64575788   1.23215587   0.89367995
   8.97429744 -12.92371192  63.12573409
   1.03311742 -71.52925477 -20.35623597
  28.14426524 -40.53006283  -1.99224925
   5.62505196   1.93271263   0.76757736
   4.38030053   1.35563979   3.12485908
   0.23925142  -2.38678507  -8.69161624
 -28.70784561  10.79380694 -23.768607  
   8.65563533   4.77759383  -1.68029197
 -22.85051863 -34.55917322  33.33376492
 -44.03959984  11.3186761   14.70986694
 -31.46252424   4.61642057 -21.23719388
