AD_withoutwater
1.00000
26.063  0.     0.   
  0.    26.063  0.   
  0.     0.    26.063
H C H H C O N H C H C H H H C O N H C H H H
1 1 1 1 1 1 1 1 1 1 1 1 1 1 1 1 1 1 1 1 1 1
Cartesian
-27.1110004  -21.76064415  -8.21425676
   2.25910621  -1.67935317   3.59247749
 -54.55235495  74.21494347  23.95281792
 -67.06716732  -9.02048348 -45.98660143
  -6.2167414    3.68056881   4.98943922
   2.50496494   1.48918401   0.35244392
  -1.37077597  -8.97572464  -4.413719  
 -75.5292641   35.08290008   5.98698397
   5.79072995   3.80084888   2.49473083
 -61.94625768 -42.93139253 -17.65697364
   6.65237972   2.49638492   0.35844085
   9.0162536   -6.31760886  63.0674955 
  -6.15511719 -90.28212936 -26.89672525
  36.33845129 -52.5849653   -2.65038304
   6.80408525   3.21955825   1.48969236
   4.04666948   2.20410627   4.17006967
  -0.85557901  -3.3085778  -12.22903663
 -29.98629756  22.90484315 -26.79153   
  13.62591923   7.99252852  -1.82136364
 -32.11292524 -41.06740181  45.71394714
 -59.55829028   5.029341    37.49741486
 -46.1541415    6.86692012 -17.21003085
