AD_withoutwater
1.00000
26.063  0.     0.   
  0.    26.063  0.   
  0.     0.    26.063
H C H H C O N H C H C H H H C O N H C H H H
1 1 1 1 1 1 1 1 1 1 1 1 1 1 1 1 1 1 1 1 1 1
Cartesian
 -33.78579819  -21.61165303  -14.80822066
    9.73181024   -1.74560453    3.60670445
  -51.38628605   88.36753361   20.85875867
  -56.61213164  -28.69081737  -40.9110654 
   -9.12910586    6.15048438    6.71860142
    4.12070173    1.00419987    0.52788266
   -2.75078787  -13.19134212   -4.22342138
  -90.39846004   36.59411281    3.75615334
    6.06988413    4.34305613    1.91779756
  -92.80119676  -66.08867914  -31.06007991
    5.7978878     3.87511983    2.78056557
   10.69556014    1.59575151   62.3219583 
  -10.19072543 -102.35673011  -28.55418877
   45.36950959  -67.57037976    3.01862147
    5.52913269    5.15521405    1.98360428
    4.70232167    2.61769579    4.31212755
   -2.81444114   -4.57156154  -17.02722582
  -26.75210638   36.82088369  -30.34453449
   19.75267008   12.94142597   -1.39263326
  -47.28334838  -58.98062664   48.52113191
  -83.14907956   -3.68711619   63.68833374
  -73.50774327    9.51310074  -20.45667089
