AD_withoutwater
1.00000
26.063  0.     0.   
  0.    26.063  0.   
  0.     0.    26.063
H C H H C O N H C H C H H H C O N H C H H H
1 1 1 1 1 1 1 1 1 1 1 1 1 1 1 1 1 1 1 1 1 1
Cartesian
 -31.51994489  -22.58239775  -11.52150515
    7.29258501   -1.90908589    3.32126333
  -53.48561736   85.64444713   21.7727333 
  -59.86651993  -22.63400203  -42.37543834
   -8.30424425    5.33107071    6.33516836
    3.78196626    0.80179326    0.53864082
   -2.32833219  -11.98927615   -4.33653972
  -85.38960812   36.62790822    4.50733404
    5.5714231     3.73709606    2.55311724
  -82.67197668  -59.80750632  -27.44414656
    6.32602686    4.83419011    1.37171402
    9.99563139   -0.92165585   62.45489315
  -12.59360998 -101.9054525   -29.14698428
   42.74264378  -63.25521641    0.48223977
    6.00290266    3.85552347    2.04669448
    4.43773412    3.09623654    4.43428831
   -2.17858844   -4.24134764  -15.65644953
  -26.65085619   31.86073161  -31.10889193
   18.05615911   11.36380745   -1.55612822
  -39.83093528  -50.86369989   49.07494115
  -76.19172969   -2.18282286   57.08809384
  -66.01540556   10.04696115  -18.94966349
