AD_withoutwater
1.00000
26.063  0.     0.   
  0.    26.063  0.   
  0.     0.    26.063
H C H H C O N H C H C H H H C O N H C H H H
1 1 1 1 1 1 1 1 1 1 1 1 1 1 1 1 1 1 1 1 1 1
Cartesian
 -29.33398438 -103.51401995  -11.19689051
    3.85339656   -8.37837285    2.34462718
  -29.67939574   -1.30870878  -18.29814177
   39.03448023   86.82218328   41.72207163
    2.37186807    3.86585847   -0.56870058
   -1.299065     -0.91682766   -1.31820346
    3.27498537    4.99803642   -1.29393176
  -64.51982114   74.46708231   20.04416271
    5.07985915    0.14015686   -1.00902756
  -40.2955026    46.90950385   64.7675274 
   -4.88555473  -13.46494843    5.8703052 
  -14.14249637  -18.10351465    7.35598637
   -0.48254368   -3.28666127   -1.64212146
   -0.35763087   -4.5135583    25.51263218
    4.96800741    0.22516656   -1.65667824
    3.02661898   -0.82415657   -0.88411159
    4.21374798    4.62516543    0.10851804
  -29.63538446    2.30619459   -7.40411882
    1.25581164    2.26349091   -4.34802527
  -24.74406575  -25.34819484  -40.55108126
  -55.46422195   17.49775878  -23.54561172
  -29.68754185    5.43311202   -9.29647826
