AD_withoutwater
1.00000
26.063  0.     0.   
  0.    26.063  0.   
  0.     0.    26.063
H C H H C O N H C H C H H H C O N H C H H H
1 1 1 1 1 1 1 1 1 1 1 1 1 1 1 1 1 1 1 1 1 1
Cartesian
-26.94052334 -21.67681753  -8.23846805
   2.09330817  -1.60029973   3.62717995
 -54.82587738  73.52058985  24.25661544
 -67.34991575  -8.44447221 -46.14399074
  -6.13703419   3.61171317   4.93258966
   2.45456423   1.52680728   0.33873598
  -1.33323616  -8.85218745  -4.41447626
 -75.10074309  34.94797946   6.11945015
   5.75992383   3.72133554   2.31373379
 -61.27206169 -42.09559195 -17.29108015
   6.59936206   2.47042399   0.363092  
   9.01516372  -6.57207486  63.09973787
  -5.76686241 -89.61769984 -26.6300093 
  36.09856777 -52.12412362  -2.77824725
   6.83297633   3.12514121   1.64109699
   4.0941648    2.15218646   4.1185174 
  -0.80460435  -3.2754237  -12.08776137
 -29.81348503  22.81189573 -26.64965556
  13.4284542    7.86098377  -1.81510662
 -31.70184701 -40.81535034  45.23614012
 -58.91793036   5.36336757  36.63860083
 -45.39416255   6.70476877 -17.23882766
