AD_withoutwater
1.00000
26.063  0.     0.   
  0.    26.063  0.   
  0.     0.    26.063
H C H H C O N H C H C H H H C O N H C H H H
1 1 1 1 1 1 1 1 1 1 1 1 1 1 1 1 1 1 1 1 1 1
Cartesian
-22.17502601 -58.43425791  -5.79645556
   0.88348364  -3.17312369  -0.53961727
 -15.91703199  -1.82681106  -6.90134266
  16.77174545  49.9828416   23.771797  
   1.02969701   1.34079439   0.69788646
  -1.14972311   0.85898274   1.44602506
   2.16621325   0.99826812  -0.7277904 
 -41.75474214  37.80760775  10.31210928
   3.10091259   0.32760645   0.17015368
 -16.80915288  33.08021353  37.72178065
  -1.69916167  -8.0366319    3.8127782 
  -7.14202722  -6.67988246   3.34743506
  -0.9935766    1.00634146   0.99061367
  -2.62003415   1.13063968   2.51916483
   2.19602158  -0.2481387   -1.11093506
   4.21684541   0.21609342   0.37408758
   2.21037277   2.12127607  -1.07750041
 -18.20265325   1.71713775  -7.59910882
  -0.47364942   0.17721417  -3.73259883
 -13.18609729 -15.73674145 -24.82248364
 -27.37204239   9.50129444 -14.66715117
 -17.30039607   3.12298373 -10.70489369
