AD_withoutwater
1.00000
26.063  0.     0.   
  0.    26.063  0.   
  0.     0.    26.063
H C H H C O N H C H C H H H C O N H C H H H
1 1 1 1 1 1 1 1 1 1 1 1 1 1 1 1 1 1 1 1 1 1
Cartesian
-20.23082313 -17.45270351  -8.06272132
  -2.25805488   2.07053324   3.43253004
 -54.24068767  55.83594559  29.90702314
 -59.35770859  -2.90558382 -34.96490581
  -3.44286874   1.31342818   3.59685812
   1.13916849   2.16205531   0.45599509
  -0.31676005  -4.54948471  -4.03930087
 -51.10777989  24.92139346   9.4986653 
   5.29660265   0.40307667   0.2497827 
 -33.56419726 -20.38943218  -6.95812625
   6.39749803   1.19948468   0.55545244
   8.46715711 -12.11475025  55.24077981
   0.88960768 -62.71990304 -17.40539298
  24.11902236 -35.33711004  -1.54202376
   5.30672795   1.30450874   0.77696519
   4.25651119   1.45359035   2.74025948
   0.60154168  -1.94851938  -7.00547431
 -28.25288075   4.84519744 -20.61876804
   6.29491323   3.36846078  -1.64962915
 -18.95779192 -31.27367162  27.93717993
 -36.53755073   9.38267496  12.94254752
 -27.71008814   5.56444397 -22.5253133 
