AD_withoutwater
1.00000
26.063  0.     0.   
  0.    26.063  0.   
  0.     0.    26.063
H C H H C O N H C H C H H H C O N H C H H H
1 1 1 1 1 1 1 1 1 1 1 1 1 1 1 1 1 1 1 1 1 1
Cartesian
 -30.51103679  -22.80315349   -9.83563458
    6.16209738   -1.91275162    3.10943967
  -52.83266648   83.64186194   21.17883739
  -61.28071785  -20.41380759  -43.28554453
   -7.91365953    4.99908883    6.13848782
    3.7117697     0.84863384    0.73798303
   -2.1517982   -11.42837325   -4.36493375
  -83.205541     36.53219466    4.53475703
    5.4372857     3.76285142    2.69095286
  -78.15712366  -57.61501148  -25.5137126 
    6.3611138     4.50481501    1.0246688 
    9.65461006   -1.86533845   62.61600267
  -13.08490052 -101.0874818   -29.35225301
   41.55278853  -61.25795163   -0.06543934
    6.38609863    3.73110658    1.83854295
    4.24269343    3.06016236    4.39687333
   -1.91015559   -4.075171    -15.03356796
  -28.43125231   30.46614655  -30.35944527
   17.28701989   10.70017836   -1.64772241
  -37.09735319  -47.67261828   49.38491259
  -72.94924215   -1.21815973   53.99858634
  -62.51436375   10.02873124  -18.36292929
