AD_withoutwater
1.00000
26.063  0.     0.   
  0.    26.063  0.   
  0.     0.    26.063
H C H H C O N H C H C H H H C O N H C H H H
1 1 1 1 1 1 1 1 1 1 1 1 1 1 1 1 1 1 1 1 1 1
Cartesian
-25.99201904 -21.250183    -8.41740862
   1.175678    -1.13677408   3.76797425
 -56.45991659  71.62036341  26.62175291
 -68.90326823  -5.24227406 -46.97754282
  -5.69140039   3.24610749   4.64393918
   2.21565584   1.7035762    0.34141665
  -1.12698475  -8.18836656  -4.40752928
 -72.20091919  33.94711618   6.96282299
   5.52102007   3.28149704   1.96129496
 -57.46406279 -37.60127055 -15.27995799
   6.67182599   2.21915807   0.42565855
   9.02036953  -8.00751284  63.18144699
  -3.67418644 -85.79430009 -25.22220233
  34.47762835 -49.34276588  -3.03973451
   6.71663478   2.63524333   1.81488608
   4.30814363   1.94895005   3.76212227
  -0.53015584  -3.09364542 -11.303422  
 -28.55088876  20.00734874 -26.73987694
  12.33186104   7.15518464  -1.77096651
 -29.45000293 -39.50827903  42.61198797
 -55.49529308   7.19700869  31.65283467
 -41.52000562   5.96102452 -17.71413372
