AD_withoutwater
1.00000
26.063  0.     0.   
  0.    26.063  0.   
  0.     0.    26.063
H C H H C O N H C H C H H H C O N H C H H H
1 1 1 1 1 1 1 1 1 1 1 1 1 1 1 1 1 1 1 1 1 1
Cartesian
-28.75023814 -22.6075081   -7.86678691
   4.26302584  -1.96968842   3.13950984
 -55.51456366  78.77370726  22.63023069
 -64.02010532 -15.41609231 -44.38416702
  -7.15070002   4.41070589   5.66869678
   3.31320042   1.06775583   0.80664568
  -1.78668604 -10.37565623  -4.40386732
 -79.62913539  36.09184051   4.81683138
   6.0076499    3.59708239   2.71243537
 -69.64334866 -52.36609172 -21.82791031
   6.7764567    3.55335821   0.54109734
   9.19537087  -3.67800882  62.83552181
  -9.83902513 -96.51625678 -29.10349666
  39.18032628 -57.5679034   -1.31327578
   6.14863099   4.01815637   1.47861209
   3.83956365   2.77802507   4.43751632
  -1.43493661  -3.72173094 -13.8180646 
 -27.72594154  27.99673602 -30.38179914
  15.7672896    9.45811622  -1.8457105 
 -35.94849102 -44.22601926  49.43952257
 -66.83992165   1.19922601  47.00708145
 -55.50926294   8.86507052 -17.59105206
