AD_withoutwater
1.00000
26.063  0.     0.   
  0.    26.063  0.   
  0.     0.    26.063
H C H H C O N H C H C H H H C O N H C H H H
1 1 1 1 1 1 1 1 1 1 1 1 1 1 1 1 1 1 1 1 1 1
Cartesian
 -34.84119856  -21.04909142  -16.5135297 
   10.83222235   -1.72366594    3.7390353 
  -51.81307512   91.42750876   21.59670898
  -57.03163318  -32.03346304  -38.62332743
   -9.49691006    6.55318687    6.86771588
    4.27401029    1.12967666    0.51341031
   -2.90232045  -13.73645001   -4.11277049
  -92.07109962   36.32009115    3.26342646
    6.26458865    4.56587134    1.84763467
  -97.33087945  -69.10659146  -32.42230292
    5.55287859    4.14797579    2.85533819
   11.0085871     2.9609563    62.25814632
   -9.10948328 -102.46196797  -28.28016152
   45.87247142  -69.53098451    4.59077515
    5.39789039    5.08960813    2.29396299
    4.79102473    2.4443713     4.29379451
   -3.11988877   -4.70089662  -17.67728753
  -26.04578776   37.5624327   -31.02006966
   20.52142492   13.63875328   -1.35013795
  -50.83867441  -62.7601195    48.28449877
  -84.30246626   -4.02198972   65.07640319
  -76.53952935    8.24346259  -21.76534987
