AD_withoutwater
1.00000
26.063  0.     0.   
  0.    26.063  0.   
  0.     0.    26.063
H C H H C O N H C H C H H H C O N H C H H H
1 1 1 1 1 1 1 1 1 1 1 1 1 1 1 1 1 1 1 1 1 1
Cartesian
-29.1163158  -22.97302832  -7.45041319
   4.90421261  -1.94706843   3.06627948
 -54.36742686  79.84565041  21.05846977
 -63.1708036  -17.2474884  -43.93971361
  -7.43511702   4.60952585   5.8406786 
   3.4618089    0.9127948    0.79892552
  -1.91726998 -10.7608065   -4.3923462 
 -80.86311429  36.28315176   4.6196347 
   5.80895419   3.68721866   2.79903775
 -72.46516555 -54.53888075 -23.3105669 
   6.68706424   3.94570771   0.31678133
   9.33706415  -3.00155504  62.77963768
  -9.66824835 -97.50996251 -28.47850071
  40.05572481 -58.91787326  -0.85656595
   6.37868001   4.01778617   1.72766716
   3.83124347   2.86503427   4.59788001
  -1.60391834  -3.84719339 -14.25973376
 -28.46067664  29.92252514 -30.52699132
  16.34212277   9.90714037  -1.78425445
 -37.79505715 -46.18543926  48.73915742
 -68.93632996  -0.00033918  49.69979984
 -58.07540812   9.34415099 -17.75837773
