AD_withoutwater
1.00000
26.063  0.     0.   
  0.    26.063  0.   
  0.     0.    26.063
H C H H C O N H C H C H H H C O N H C H H H
1 1 1 1 1 1 1 1 1 1 1 1 1 1 1 1 1 1 1 1 1 1
Cartesian
 -34.27099354  -21.38115304  -15.59066181
   10.24468529   -1.72784499    3.67181541
  -51.31210469   90.09132949   21.07191851
  -56.09889671  -30.37771893  -40.41176426
   -9.30542767    6.34087398    6.79886816
    4.23259593    1.11989796    0.57307343
   -2.85121823  -13.42373028   -4.17517346
  -91.23262499   36.48604562    3.5108531 
    6.21237905    4.49968575    1.71416747
  -94.92147466  -67.54808224  -31.71997192
    5.6776401     3.77846628    2.9434014 
   10.83067737    2.22103584   62.28312132
   -9.68426687 -102.39947225  -28.42834743
   45.65296707  -68.4772475     3.74681762
    5.44827457    5.30691174    2.01465931
    4.69530363    2.45044747    4.36614244
   -2.96479889   -4.62362919  -17.31610576
  -26.32545483   36.57266967  -30.57248573
   20.11514157   13.27761882   -1.37398683
  -48.96078436  -60.7681645    48.41577185
  -84.28679121   -3.81876045   64.65338759
  -75.0156568     9.07537571  -20.98549824
