AD_withoutwater
1.00000
26.063  0.     0.   
  0.    26.063  0.   
  0.     0.    26.063
H C H H C O N H C H C H H H C O N H C H H H
1 1 1 1 1 1 1 1 1 1 1 1 1 1 1 1 1 1 1 1 1 1
Cartesian
-24.29518765 -67.22939342  -7.05070237
   1.43936732  -4.32550323   0.00311898
 -18.16209578  -1.05792487  -8.60147126
  20.59804614  57.52987434  27.15235246
   1.01704927   1.50968529   0.63075989
  -1.09457567   0.42747379   1.01389273
   2.75197371   1.74250668  -0.70270405
 -46.59918162  44.95765388  12.20392711
   2.82823432   0.42806495  -0.59497569
 -21.05902127  36.10264776  42.67924242
  -2.25202796  -9.11184852   4.23150517
  -8.7196018   -8.95668139   4.32335113
   0.21158829   1.56105198   1.78275286
  -1.50726916   0.93922419   0.44911846
   2.70522944   0.52850256  -0.6100849 
   4.30838851  -0.36314029   0.39474299
   2.89508237   2.86198761  -1.23364266
 -19.86433892   1.31205425  -8.13829945
  -0.65460922   0.35258228  -3.78405958
 -15.44831025 -17.92322711 -28.08633253
 -32.64527575  11.04382626 -16.486279  
 -19.74466005   3.80092439 -10.62197949
