AD_withoutwater
1.00000
26.063  0.     0.   
  0.    26.063  0.   
  0.     0.    26.063
H C H H C O N H C H C H H H C O N H C H H H
1 1 1 1 1 1 1 1 1 1 1 1 1 1 1 1 1 1 1 1 1 1
Cartesian
-26.82197114 -21.61804403  -8.26358162
   1.97104787  -1.54244168   3.65109385
 -55.09828272  73.04877486  24.54698501
 -67.55321873  -8.02499331 -46.26242764
  -6.0781779    3.56137569   4.8925952 
   2.42302372   1.55403147   0.33373451
  -1.30667624  -8.76357705  -4.41413198
 -74.77555355  34.83762546   6.21735142
   5.7312548    3.66152338   2.19395247
 -60.77558959 -41.49680349 -17.021057  
   6.56474099   2.45379508   0.37886329
   9.01462199  -6.7548137   63.11957993
  -5.48928145 -89.1344462  -26.43622956
  35.91957591 -51.78379073  -2.86209033
   6.85498147   3.0543727    1.72472632
   4.12630628   2.11683305   4.0775193 
  -0.76726527  -3.25212736 -11.98507029
 -29.61008805  22.70557478 -26.6181994 
  13.28464816   7.76739676  -1.80937992
 -31.39994701 -40.63246005  44.88838517
 -58.45771965   5.61333339  36.00856948
 -44.85438441   6.59440067 -17.27066948
