AD_withoutwater
1.00000
26.063  0.     0.   
  0.    26.063  0.   
  0.     0.    26.063
H C H H C O N H C H C H H H C O N H C H H H
1 1 1 1 1 1 1 1 1 1 1 1 1 1 1 1 1 1 1 1 1 1
Cartesian
-30.05554417 -22.89377558  -9.05166845
   5.69650495  -1.91937156   3.04922599
 -53.05075135  82.16679268  21.00256093
 -62.02752065 -19.25425309 -43.49823519
  -7.73547886   4.84694075   6.02506149
   3.61605479   0.85560511   0.76182956
  -2.0646997  -11.17612326  -4.37941917
 -82.28599078  36.45122461   4.53796036
   5.41984399   3.73837049   2.84913983
 -76.1029578  -56.51407021 -24.68033723
   6.47848847   4.30512525   0.73112006
   9.52609335  -2.28805664  62.70360819
 -11.8058326  -99.77075945 -29.0337621 
  40.99821821 -60.38369788  -0.34965163
   6.55595046   3.86562004   1.70028033
   4.07655312   2.99802189   4.49067953
  -1.79530314  -3.99434358 -14.74525378
 -28.75932178  30.35121656 -30.17613374
  16.94185361  10.40454476  -1.69787279
 -37.35526776 -47.13400613  49.13672186
 -71.39129226  -1.11625035  52.73300887
 -60.87044274   9.84990915 -18.11901953
