AD_withoutwater
1.00000
26.063  0.     0.   
  0.    26.063  0.   
  0.     0.    26.063
H C H H C O N H C H C H H H C O N H C H H H
1 1 1 1 1 1 1 1 1 1 1 1 1 1 1 1 1 1 1 1 1 1
Cartesian
-27.45354414 -21.91455526  -8.15657024
   2.59533074  -1.82909972   3.51526042
 -54.35336948  75.80379978  23.6703228 
 -66.48729726 -10.18561622 -45.69161634
  -6.37388978   3.81763471   5.11138137
   2.62268408   1.41418566   0.41681802
  -1.44577934  -9.22618392  -4.41123438
 -76.36295562  35.32210868   5.74920278
   6.01401133   3.7963357    2.64235379
 -63.30396947 -44.65630731 -18.38985138
   6.753577     2.55700555   0.36838896
   8.99082819  -5.80479173  63.00890105
  -6.9589453  -91.65811775 -27.43824456
  36.8258858  -53.50132771  -2.39763529
   6.55766826   3.54171297   1.38083129
   3.95560205   2.31876777   4.24699852
  -0.9591734   -3.3805679  -12.51640088
 -29.96859116  22.91392453 -27.40419155
  14.0292545    8.26595799  -1.84029419
 -32.95699023 -41.54379256  46.68772207
 -60.84740047   4.36747799  39.21449754
 -47.7536554    7.23081067 -17.21517172
