AD_withoutwater
1.00000
26.063  0.     0.   
  0.    26.063  0.   
  0.     0.    26.063
H C H H C O N H C H C H H H C O N H C H H H
1 1 1 1 1 1 1 1 1 1 1 1 1 1 1 1 1 1 1 1 1 1
Cartesian
 -37.42698536  -23.46328956  -15.90198472
   14.43721777   -1.66359536    4.0094072 
  -55.59992907   96.7437277    22.18754097
  -59.07660778  -36.73823997  -32.46428024
  -10.79514599    8.07541595    6.67150235
    4.68603442    1.79004139    0.25890333
   -3.36597684  -16.51738625   -3.81388139
  -96.43618025   34.49092858    2.21600046
    5.87676676    5.67023287    2.60059828
 -112.08396083  -78.57645786  -37.01169364
    5.07593829    5.22116227    2.30231922
   13.80848154    7.69858617   61.10944846
   -7.08103961 -103.34447682  -29.03236424
   45.99051637  -76.9156062    10.56842969
    5.06437001    4.70379613    2.99710897
    5.45919318    1.72267221    4.54074984
   -4.0972259    -5.26272529  -19.86943811
  -28.66134589   44.47713541  -30.55870139
   22.76894259   15.91621542   -1.08309939
  -54.04330893  -60.28338249   49.03698419
  -87.13645725  -10.15635727   72.59081833
  -82.42578378    1.69165501  -24.71277188
