AD_withoutwater
1.00000
26.063  0.     0.   
  0.    26.063  0.   
  0.     0.    26.063
H C H H C O N H C H C H H H C O N H C H H H
1 1 1 1 1 1 1 1 1 1 1 1 1 1 1 1 1 1 1 1 1 1
Cartesian
 -8.79325116  -3.76869514  -1.18154456
  -2.00161298   0.32865594   1.51027323
 -14.51152081  11.25451561  10.93403224
 -15.83065109   0.23530518  -5.02172896
  -2.27294577   0.72906498   0.91140868
  -1.09768914   2.72409952   1.48549362
  -0.41652326  -0.4790543   -0.05738811
 -13.8791368    6.11154026   3.39226352
   1.20341436  -1.19678973   0.25300663
   1.63331664  -1.74692097   0.40528156
   1.86532255  -0.88806204   1.26107173
   3.07025886  -5.73508408  10.69665018
   1.3750213  -15.70073796  -4.58521011
   7.0379786   -7.48586408   0.2018552 
   1.86075897  -0.39612897  -0.64514631
   3.65201715   0.41890755   0.28018772
   0.74601868  -0.79409363  -1.86437897
  -7.16762068   1.78641914  -9.13537295
   1.3275964    0.20690426  -3.07464111
  -3.37723187  -6.25721012   2.9789893 
  -6.33587436   2.66658501  -0.9269815 
  -9.2119666    1.46213353  -8.01850728
