AD_withoutwater
1.00000
26.063  0.     0.   
  0.    26.063  0.   
  0.     0.    26.063
H C H H C O N H C H C H H H C O N H C H H H
1 1 1 1 1 1 1 1 1 1 1 1 1 1 1 1 1 1 1 1 1 1
Cartesian
-27.13925799 -21.77416611  -8.21048387
   2.28611452  -1.6923484    3.58640212
 -54.53925965  74.35611078  23.93515706
 -67.01880396  -9.11659843 -45.96086963
  -6.23007661   3.69186606   4.99908407
   2.51387004   1.48292267   0.3556996 
  -1.37710501  -8.99626845  -4.41352134
 -75.59970399  35.10261831   5.9652227 
   5.7996175    3.80998974   2.520594  
 -62.05823322 -43.07148649 -17.71776335
   6.66072746   2.50120791   0.35901603
   9.01605618  -6.27543085  63.06196192
  -6.22016853 -90.39277259 -26.94058894
  36.37797627 -52.66095499  -2.62827365
   6.79555447   3.23842804   1.46702645
   4.03889718   2.21291443   4.17811805
  -0.86412623  -3.31426274 -12.25245576
 -29.98143581  22.89286939 -26.84759137
  13.65893183   8.01447022  -1.8227481 
 -32.18057455 -41.10965954  45.79306452
 -59.66520553   4.97452045  37.63822068
 -46.28307611   6.89505424 -17.20761164
