AD_withoutwater
1.00000
26.063  0.     0.   
  0.    26.063  0.   
  0.     0.    26.063
H C H H C O N H C H C H H H C O N H C H H H
1 1 1 1 1 1 1 1 1 1 1 1 1 1 1 1 1 1 1 1 1 1
Cartesian
-27.93782283 -22.12816474  -8.09156185
   3.13610165  -1.96884415   3.39454757
 -54.84723749  77.86941426  23.71376271
 -65.61067966 -11.92430467 -45.24959345
  -6.6143993    4.01927698   5.30572696
   2.85475839   1.31405192   0.56830754
  -1.56008769  -9.60634148  -4.40638095
 -77.49365564  35.58266791   5.5612908 
   6.2473942    3.70089616   2.7087288 
 -65.33443662 -47.31077642 -19.45816483
   6.83074868   2.84312112   0.51282418
   9.02265237  -5.05301787  62.92663889
  -8.22038064 -93.68964566 -28.27648805
  37.58726101 -54.8580609   -2.04320098
   6.18787223   3.79922128   1.2869762 
   3.86498796   2.4972761    4.2837419 
  -1.11456296  -3.49555604 -12.95797176
 -29.16443085  23.45531365 -28.74610114
  14.64675875   8.68786024  -1.86904852
 -34.24438677 -42.2424929   48.14232296
 -62.8064094    3.35654255  41.7975956 
 -50.30636868   7.8528847  -17.48120427
