AD_withoutwater
1.00000
26.063  0.     0.   
  0.    26.063  0.   
  0.     0.    26.063
H C H H C O N H C H C H H H C O N H C H H H
1 1 1 1 1 1 1 1 1 1 1 1 1 1 1 1 1 1 1 1 1 1
Cartesian
-25.41548685 -20.97947127  -8.46749779
   0.64351316  -0.82613379   3.80656643
 -55.94147505  71.0936428   27.16333445
 -69.78341506  -3.29616741 -47.45086375
  -5.41369591   3.05554191   4.4931298 
   2.0120349    1.75829701   0.31900975
  -1.01772409  -7.78405184  -4.38098229
 -70.09055439  33.12896589   7.4645966 
   5.69479189   2.99158373   2.09733708
 -55.12716126 -35.04830279 -14.08589523
   6.89264401   1.97846332   0.46870631
   8.98547965  -8.90284028  63.16904349
  -2.34490719 -83.25452398 -24.54300031
  33.44561625 -47.60106848  -3.10984248
   6.21599205   2.45531737   1.60754419
   4.43899215   1.85296736   3.57724345
  -0.37109161  -2.97533222 -10.83515333
 -29.14517417  17.28642809 -26.10739644
  11.67723665   6.73458872  -1.74510469
 -28.19155158 -38.73406439  41.01397519
 -53.57548045   8.06193703  28.54289019
 -39.51165433   5.66230543 -18.16369027
