AD_withoutwater
1.00000
26.063  0.     0.   
  0.    26.063  0.   
  0.     0.    26.063
H C H H C O N H C H C H H H C O N H C H H H
1 1 1 1 1 1 1 1 1 1 1 1 1 1 1 1 1 1 1 1 1 1
Cartesian
-29.77133813 -22.92333196  -8.57749863
   5.42951759  -1.9302371    3.04996477
 -53.24572569  81.2483976   20.90226641
 -62.45482355 -18.56643983 -43.64397916
  -7.63505102   4.76133811   5.96195611
   3.56381475   0.86463197   0.77128995
  -2.0133588  -11.0339431   -4.38469332
 -81.7917723   36.38886483   4.54987157
   5.52867646   3.74009386   2.84225198
 -74.89718407 -55.84003575 -24.21980067
   6.56362709   4.19340153   0.51112204
   9.45460471  -2.52425815  62.74105566
 -11.09474096 -99.02910532 -28.85645206
  40.68389196 -59.8878442   -0.51165017
   6.56791935   3.92990333   1.7064003 
   3.94508783   2.93698321   4.58941311
  -1.73210181  -3.94538432 -14.58106534
 -28.88790865  30.35666919 -30.11927438
  16.74284487  10.23772493  -1.7262603 
 -37.50395673 -46.83322607  48.99944438
 -70.52271362  -0.77916251  51.70041105
 -59.91678691   9.7031058  -17.97603133
