AD_withoutwater
1.00000
26.063  0.     0.   
  0.    26.063  0.   
  0.     0.    26.063
H C H H C O N H C H C H H H C O N H C H H H
1 1 1 1 1 1 1 1 1 1 1 1 1 1 1 1 1 1 1 1 1 1
Cartesian
 -9.07675446  -4.17245143  -1.40412978
  -1.86421861   0.23215148   1.47027735
 -15.6784998   12.45399812  11.96150936
 -17.01345029   0.10748046  -5.72877151
  -2.55997499   0.80145251   0.94336001
  -1.04270693   2.85234964   1.5210398 
  -0.52640962  -0.46372316  -0.07298328
 -14.78656804   6.6167471    3.61452582
   1.32129273  -1.20921874   0.13343421
   1.28400015  -1.75074655   0.586535  
   2.02011709  -0.85518468   1.16217405
   3.15912969  -6.06978613  11.45484575
   1.39427514 -16.88003202  -5.05219871
   7.49670167  -8.16646792   0.08088004
   1.99350367  -0.49155611  -0.77780841
   3.69971272   0.49693612   0.37872254
   0.92033019  -0.86249465  -1.83213355
  -7.79251635   1.88299832  -9.05937032
   1.33148907   0.19841219  -2.99240617
  -3.7923959   -6.90567536   3.59079283
  -6.97245853   2.76271234  -0.4715613 
  -9.83539546   1.68221266  -8.89453234
