AD_withoutwater
1.00000
26.063  0.     0.   
  0.    26.063  0.   
  0.     0.    26.063
H C H H C O N H C H C H H H C O N H C H H H
1 1 1 1 1 1 1 1 1 1 1 1 1 1 1 1 1 1 1 1 1 1
Cartesian
-20.21719103 -17.44291059  -8.05944711
  -2.26124048   2.0764243    3.43011784
 -54.2229076   55.77053882  29.90102277
 -59.31848471  -2.91781193 -34.92009701
  -3.44077093   1.30825376   3.5951809 
   1.13642473   2.16418029   0.45478277
  -0.31526779  -4.54154568  -4.03869183
 -51.06155033  24.9019583    9.49665327
   5.29478097   0.40338027   0.24748936
 -33.50776849 -20.3555634   -6.94567005
   6.39347383   1.19905528   0.55212803
   8.46222879 -12.1050885   55.1865612 
   0.88841174 -62.66891847 -17.39084104
  24.09593528 -35.30595905  -1.53852554
   5.30643367   1.28935685   0.77250209
   4.25552492   1.45419466   2.74361463
   0.60355415  -1.94609469  -6.99519165
 -28.21637645   4.85932249 -20.60508042
   6.28262507   3.36299928  -1.65164622
 -18.93400986 -31.25172622  27.90583644
 -36.49345906   9.36782667  12.94035743
 -27.71572318   5.55669594 -22.51345255
