AD_withoutwater
1.00000
26.063  0.     0.   
  0.    26.063  0.   
  0.     0.    26.063
H C H H C O N H C H C H H H C O N H C H H H
1 1 1 1 1 1 1 1 1 1 1 1 1 1 1 1 1 1 1 1 1 1
Cartesian
 -33.47486929  -21.75114253  -14.33809601
    9.36615425   -1.76393111    3.56478591
  -51.94210451   87.28507997   20.99950754
  -57.20190628  -27.40039969  -40.9879956 
   -9.00268147    6.01389706    6.65891544
    4.02229821    0.89152326    0.46249306
   -2.69090751  -13.01285836   -4.25122523
  -89.72816437   36.62603702    3.93509356
    5.9729138     4.24732438    2.09386371
  -91.31714683  -65.0680627   -30.57565382
    5.88212978    4.05248797    2.62452063
   10.5995525     1.18851203   62.3521841 
  -10.57158541 -102.35492073  -28.65285792
   45.11217479  -66.92378702    2.47099385
    5.60148649    4.97435331    2.00600478
    4.7172683     2.74739046    4.28611561
   -2.69401169   -4.54544886  -16.84719757
  -26.42119537   36.69236024  -30.44737669
   19.49541988   12.69975427   -1.40441487
  -46.10939497  -57.7104779    48.59160865
  -82.30765716   -3.56898874   63.05119608
  -72.41506112    9.68273558  -20.18393024
