AD_withoutwater
1.00000
26.063  0.     0.   
  0.    26.063  0.   
  0.     0.    26.063
H C H H C O N H C H C H H H C O N H C H H H
1 1 1 1 1 1 1 1 1 1 1 1 1 1 1 1 1 1 1 1 1 1
Cartesian
 -43.13488064 -161.73633565   -8.47275191
    7.98972494  -15.59955283    5.98397093
  -49.06783907   -2.67133557  -31.37653888
   85.62455441  132.37039692   52.02750072
    6.84638696    4.82783675   -0.90023433
   -3.08226697   -3.58218385   -5.30394596
    7.00219002    5.44591883   -2.14271318
  -98.05567484  118.0047199    29.43639076
    3.66344005    1.83786503   -1.89628023
  -65.380989     43.92337455   81.07592698
   -9.72762805  -20.58977317    8.28884597
  -25.06520141  -33.89821869   11.73651944
    6.80944861  -20.7547585     9.53309363
   17.73044149   13.55888358   75.79415884
    3.70926682    2.54038557   -1.44514275
    2.82051993    4.08078622   -3.51650025
    2.73042983    6.08908923    0.34251192
  -41.18617931    2.30379628  -11.24962041
    8.97433908    5.67974737   -4.20537183
  -33.26352727  -33.44133524  -54.85707388
 -100.55503789   29.92074013  -41.48558907
  -38.37594481   -1.35716138  -13.01927548
