AD_withoutwater
1.00000
26.063  0.     0.   
  0.    26.063  0.   
  0.     0.    26.063
H C H H C O N H C H C H H H C O N H C H H H
1 1 1 1 1 1 1 1 1 1 1 1 1 1 1 1 1 1 1 1 1 1
Cartesian
 -39.323519   -156.62606807  -11.27764473
    7.39481897  -14.58742185    5.60412002
  -51.82920561   -3.48274285  -30.89797235
   77.54825475  125.93678227   53.04184581
    5.72294291    5.43297281   -0.83756889
   -2.49322695   -3.37274541   -4.70131539
    6.81517939    5.61646823   -1.45456062
  -90.80534559  114.87432115   28.10256037
    4.46827336    0.98146105   -1.52998939
  -64.12596321   43.166127     78.89581268
   -8.97719708  -19.53425081    7.88916536
  -23.44317948  -31.61012812   11.50284007
    4.17547804  -16.22696169    6.19488674
   12.81683829    9.9486331    69.55816841
    3.41793946    1.75466785   -1.72589648
    2.35369539    3.31098531   -3.4292726 
    3.69794689    6.05859741   -0.18407492
  -40.07977992    2.81672756   -8.51881182
    7.94859592    5.08826793   -4.21267809
  -32.72051776  -31.20521009  -52.14130195
  -92.09949601   29.08979019  -39.20086906
  -39.18563153    1.243588    -11.70147878
