AD_withoutwater
1.00000
26.063  0.     0.   
  0.    26.063  0.   
  0.     0.    26.063
H C H H C O N H C H C H H H C O N H C H H H
1 1 1 1 1 1 1 1 1 1 1 1 1 1 1 1 1 1 1 1 1 1
Cartesian
-24.79723401 -20.69903895  -8.53577684
   0.11490863  -0.47575598   3.8393448 
 -55.04546664  69.45457483  27.02076256
 -70.72306228  -1.15759976 -47.98815731
  -5.12470027   2.85903588   4.34310212
   1.7809046    1.81167153   0.28031771
  -0.91267044  -7.36038945  -4.34260104
 -67.70825092  32.14576544   7.87181143
   6.05208921   3.00974852   1.96938061
 -52.64590698 -32.56348622 -12.75448192
   6.99958246   1.79034729   0.66345216
   8.96461052  -9.7842774   63.12625353
  -0.87419383 -80.54995486 -23.82138302
  32.2717314  -45.99324584  -2.81744134
   5.67571342   2.06684099   1.37664199
   4.54725362   1.62175977   3.50334153
  -0.2080282   -2.86320893 -10.35814089
 -30.09302567  15.51312954 -24.89679337
  11.00375442   6.29589294  -1.71877618
 -26.9405329  -37.82837778  39.28017824
 -51.50861224   8.92974261  25.32588461
 -37.59082827   5.37753224 -18.72313581
