AD_withoutwater
1.00000
26.063  0.     0.   
  0.    26.063  0.   
  0.     0.    26.063
H C H H C O N H C H C H H H C O N H C H H H
1 1 1 1 1 1 1 1 1 1 1 1 1 1 1 1 1 1 1 1 1 1
Cartesian
 -37.1562247   -23.21726607  -16.0419427 
   13.97270965   -1.66239765    3.978844  
  -55.55189605   95.35152998   22.74649756
  -59.12359408  -35.47355997  -33.69197986
  -10.62149613    7.89549227    6.69162952
    4.59852416    1.68039939    0.29167532
   -3.28584237  -16.11143433   -3.85172105
  -95.64101027   35.03778908    2.27739223
    5.96351795    5.42153173    2.63752096
 -110.18656291  -77.36442891  -36.40208063
    4.98582198    5.27212326    2.31668623
   13.26461589    7.19674674   61.29771703
   -6.4910361  -102.85965886  -27.95765731
   46.14672847  -76.03951959    9.81118847
    5.16737011    4.56154213    2.92767123
    5.41956875    1.89814519    4.44750203
   -3.96307599   -5.18377091  -19.59028115
  -27.77305577   42.81096908  -30.0695662 
   22.51185625   15.64716297   -1.1604771 
  -54.02242614  -60.23856346   48.41336582
  -86.65945832  -10.11937086   71.91802967
  -82.60411662    2.14435446  -25.3952835 
