AD_withoutwater
1.00000
26.063  0.     0.   
  0.    26.063  0.   
  0.     0.    26.063
H C H H C O N H C H C H H H C O N H C H H H
1 1 1 1 1 1 1 1 1 1 1 1 1 1 1 1 1 1 1 1 1 1
Cartesian
 -33.30164901  -21.83415621  -14.08376524
    9.15618933   -1.77653723    3.54307493
  -52.31974932   86.73369828   21.11017546
  -57.45834663  -26.90603502  -41.05616117
   -8.92782588    5.93760714    6.62252924
    3.96891666    0.83172467    0.42931702
   -2.65292964  -12.90950583   -4.26712855
  -89.32386427   36.63171148    4.03650484
    5.91388683    4.19172483    2.20066141
  -90.45895242  -64.47628146  -30.29588254
    5.86067623    4.0750151     2.62434969
   10.54838784    0.95834121   62.35900793
  -10.80104029 -102.36009964  -28.71098276
   44.94397125  -66.55297304    2.14614016
    5.64584277    4.87266065    2.01238976
    4.7751431     2.87669225    4.20084585
   -2.64579321   -4.5159178   -16.71821258
  -26.2115252    36.57849944  -30.53920595
   19.34643858   12.55750166   -1.40846745
  -45.4412529   -56.97364641   48.63607629
  -81.64017374   -3.44678541   62.36681107
  -71.77033115    9.75472666  -20.05354204
