AD_withoutwater
1.00000
26.063  0.     0.   
  0.    26.063  0.   
  0.     0.    26.063
H C H H C O N H C H C H H H C O N H C H H H
1 1 1 1 1 1 1 1 1 1 1 1 1 1 1 1 1 1 1 1 1 1
Cartesian
 -37.26447548  -23.31762161  -15.99221648
   14.14260098   -1.66314915    3.9901707 
  -55.52988366   95.86977825   22.53349788
  -59.10529137  -35.96038849  -33.25151815
  -10.68577117    7.96115612    6.6834865 
    4.63143906    1.7309209     0.28871648
   -3.31562369  -16.25877805   -3.83719498
  -95.92453846   34.84430614    2.25075542
    5.933522      5.50899556    2.63406537
 -110.88241289  -77.80507336  -36.61952222
    5.01985885    5.24207211    2.31063057
   13.46996657    7.3910447    61.21130891
   -6.72304303 -103.04113796  -28.3671834 
   46.10359788  -76.36024134   10.08340937
    5.12642242    4.61822186    2.93158236
    5.43426132    1.83038544    4.4830306 
   -4.01178864   -5.21347242  -19.69296404
  -28.10935949   43.41119509  -30.22131549
   22.60577094   15.74674693   -1.13164433
  -54.04903384  -60.25533943   48.63919572
  -86.85801873  -10.11657121   72.15869463
  -82.53239021    1.98488737  -25.12874275
