AD_withoutwater
1.00000
26.063  0.     0.   
  0.    26.063  0.   
  0.     0.    26.063
H C H H C O N H C H C H H H C O N H C H H H
1 1 1 1 1 1 1 1 1 1 1 1 1 1 1 1 1 1 1 1 1 1
Cartesian
-21.30404865 -18.24696752  -8.25636187
  -1.98267801   1.56222558   3.56346364
 -55.22315619  60.33844995  30.1077178 
 -62.30907667  -1.98794895 -38.35041089
  -3.62740495   1.64812282   3.7209257 
   1.26419992   2.04210361   0.51838805
  -0.42643698  -5.15426824  -4.08813875
 -54.62173416  26.40729781   9.55968782
   5.51278655   0.69199336   0.58393733
 -37.80973969 -22.87421816  -7.97656128
   6.59175293   1.21177263   0.73673457
   8.76619083 -12.77395576  59.31825295
   0.9920032  -66.57993182 -18.60922255
  25.90151338 -37.62256711  -1.79979477
   5.34379738   1.96985307   0.93571453
   4.32197264   1.42059702   2.70164646
   0.44297649  -2.13259846  -7.77163873
 -29.90499111   5.98130246 -22.45420372
   7.31061026   3.9146324   -1.6189986 
 -20.71125087 -32.80075759  30.31470793
 -39.87145401  10.50523574  13.13287842
 -28.22187578   5.42646664 -22.01711869
