AD_withoutwater
1.00000
26.063  0.     0.   
  0.    26.063  0.   
  0.     0.    26.063
H C H H C O N H C H C H H H C O N H C H H H
1 1 1 1 1 1 1 1 1 1 1 1 1 1 1 1 1 1 1 1 1 1
Cartesian
-25.38245798 -20.96466638  -8.47037   
   0.6157447   -0.80874414   3.8080074 
 -55.88395726  71.06356199  27.17249363
 -69.82992703  -3.19065622 -47.4769707 
  -5.39916782   3.04571253   4.48507566
   1.99911379   1.76080901   0.31594679
  -1.0122635   -7.76235297  -4.37938059
 -69.97167561  33.08145339   7.48936275
   5.72104673   2.99589744   2.08347308
 -54.99953523 -34.91832334 -14.01960113
   6.90594      1.96753345   0.4737312 
   8.98401399  -8.94910278  63.16681977
  -2.28215924 -83.13266665 -24.5076409 
  33.38285486 -47.5180162   -3.09835332
   6.18609286   2.44085304   1.59282301
   4.43584815   1.83569528   3.58570877
  -0.36236284  -2.96928451 -10.81062777
 -29.19423542  17.1565153  -26.05554808
  11.64265064   6.712246    -1.74344055
 -28.12664699 -38.6896132   40.9266701 
 -53.47033504   8.10607776  28.37852255
 -39.4102205    5.64768187 -18.19096072
