AD_withoutwater
1.00000
26.063  0.     0.   
  0.    26.063  0.   
  0.     0.    26.063
H C H H C O N H C H C H H H C O N H C H H H
1 1 1 1 1 1 1 1 1 1 1 1 1 1 1 1 1 1 1 1 1 1
Cartesian
 -33.17099929  -21.90286131  -13.90818737
    9.00078392   -1.78599891    3.52850681
  -52.59944372   86.317792     21.18581658
  -57.66599681  -26.51092697  -41.1010186 
   -8.87366346    5.88120494    6.59602301
    3.93356094    0.79363638    0.41156448
   -2.62522729  -12.83200868   -4.2779848 
  -89.01778002   36.63205749    4.11191408
    5.86073296    4.13709862    2.29622022
  -89.82110629  -64.03511522  -30.08659581
    5.84691615    4.09135165    2.61660657
   10.50909315    0.79247964   62.36324575
  -10.97473499 -102.36516797  -28.75464895
   44.80460909  -66.2911895     1.91410268
    5.6775419     4.79635156    2.01418455
    4.82088715    2.97628953    4.12532371
   -2.60928035   -4.49512334  -16.62516045
  -26.04821937   36.50275999  -30.60777116
   19.23695367   12.45282014   -1.41177273
  -44.94283488  -56.43206347   48.66501577
  -81.14940124   -3.35667006   61.88884184
  -71.28666714    9.80872118  -19.95702979
