AD_withoutwater
1.00000
26.063  0.     0.   
  0.    26.063  0.   
  0.     0.    26.063
H C H H C O N H C H C H H H C O N H C H H H
1 1 1 1 1 1 1 1 1 1 1 1 1 1 1 1 1 1 1 1 1 1
Cartesian
-25.44872106 -20.99374371  -8.46419407
   0.67121191  -0.84343562   3.80507266
 -55.99670271  71.12646196  27.15556511
 -69.73705834  -3.40056687 -47.42512082
  -5.42822755   3.06548255   4.50122718
   2.02503408   1.75581824   0.32211671
  -1.02319727  -7.80583907  -4.38247499
 -70.20866049  33.17608368   7.44006355
   5.66707713   2.98707365   2.11258194
 -55.25490637 -35.1790316  -14.15131805
   6.87981525   1.98892534   0.46278661
   8.98714415  -8.85630276  63.17103067
  -2.40983268 -83.37852386 -24.57819561
  33.5082167  -47.68485203  -3.12054959
   6.2454587    2.4696201    1.62251705
   4.44292971   1.87077657   3.56800159
  -0.37965655  -2.98160201 -10.85967667
 -29.0964232   17.41535207 -26.15889323
  11.71181267   6.75700419  -1.74683026
 -28.25648697 -38.77823736  41.10109266
 -53.67988035   8.01771129  28.70734151
 -39.6136282    5.67701247 -18.13706997
