AD_withoutwater
1.00000
26.063  0.     0.   
  0.    26.063  0.   
  0.     0.    26.063
H C H H C O N H C H C H H H C O N H C H H H
1 1 1 1 1 1 1 1 1 1 1 1 1 1 1 1 1 1 1 1 1 1
Cartesian
 -31.9560609   -22.51313302  -12.2607418 
    7.75813298   -1.88332798    3.39219039
  -53.69195491   85.86547115   21.86253973
  -59.27079754  -23.56119747  -41.86211939
   -8.46348147    5.4705804     6.40057735
    3.78462813    0.73488507    0.4386885 
   -2.40661028  -12.21784542   -4.3278703 
  -86.3534807    36.6498692     4.47205118
    5.62430989    3.81397477    2.57354091
  -84.57546957  -60.7843276   -28.23649979
    6.24025361    4.71538551    1.68207031
   10.12792044   -0.49576139   62.39846275
  -12.43674373 -102.30026756  -29.08205549
   43.32832578  -64.14682692    0.71827624
    5.91506531    4.1085814     2.03291717
    4.55660313    3.10620078    4.36957407
   -2.29266042   -4.30853118  -15.91444308
  -26.00164859   33.05772284  -31.23979238
   18.37165885   11.64868578   -1.50462207
  -40.91097044  -52.12655257   48.95104294
  -77.52978896   -2.50412564   58.38641462
  -67.44220953   10.01894955  -19.2065847 
