AD_withoutwater
1.00000
26.063  0.     0.   
  0.    26.063  0.   
  0.     0.    26.063
H C H H C O N H C H C H H H C O N H C H H H
1 1 1 1 1 1 1 1 1 1 1 1 1 1 1 1 1 1 1 1 1 1
Cartesian
-26.46665885 -21.4648017   -8.33783484
   1.62336487  -1.37616704   3.7130854 
 -55.82936819  72.11952195  25.4600576 
 -68.14797607  -6.82482765 -46.5885999 
  -5.91183056   3.4199782    4.77994107
   2.34065641   1.62987577   0.33429596
  -1.23050342  -8.5145176   -4.41224171
 -73.7432904   34.50620362   6.52556451
   5.60573702   3.49025442   1.93754652
 -59.35681004 -39.79713982 -16.26134206
   6.5049171    2.42800797   0.47889884
   9.01798878  -7.29622375  63.15171973
  -4.68562794 -87.69447593 -25.90255849
  35.34264673 -50.77561745  -3.03156218
   6.92046921   2.81682177   1.82657997
   4.2102571    2.02971387   3.94839046
  -0.66208691  -3.18510777 -11.69125051
 -29.06278959  21.90221986 -26.64232124
  12.87430293   7.5027888   -1.79257922
 -30.55501755 -40.12687853  43.91760726
 -57.14492105   6.33267432  34.16292055
 -43.34912836   6.29299789 -17.40600875
