AD_withoutwater
1.00000
26.063  0.     0.   
  0.    26.063  0.   
  0.     0.    26.063
H C H H C O N H C H C H H H C O N H C H H H
1 1 1 1 1 1 1 1 1 1 1 1 1 1 1 1 1 1 1 1 1 1
Cartesian
-2.79977823  1.28705684  1.92982903
 -2.72805661  0.78843877  0.88576663
 -1.77020984 -0.22274688 -0.23647015
 -2.63651973  0.00973351  1.78452257
 -1.68288984  0.29431291  1.00469241
 -1.17575745  1.22749656  1.03397843
 -0.18139452  0.58541614  0.97547943
 -2.46185414 -1.29287436  1.62230615
  0.18709117 -1.09733631  0.37357655
 -0.22711476  0.45345531  2.20713579
  1.03941225 -1.30365472  0.95565485
  1.7748059  -2.28582556  1.46786351
  0.60018174 -2.428356    0.99758921
  0.69588826 -2.31559461  2.08313902
  1.28334603 -0.29583491  0.10078222
  2.02686202 -0.11067064 -0.6561158 
  0.83436486 -0.06860268 -1.75507999
 -0.69684526  0.23061661  0.06728721
  0.57124163  0.13082994 -2.78678415
  1.63566616  0.20160814 -2.51577638
  1.5341874  -0.20930936 -3.51408391
  0.37728498 -0.1298634  -3.82107082
