AD_withoutwater
1.00000
26.063  0.     0.   
  0.    26.063  0.   
  0.     0.    26.063
H C H H C O N H C H C H H H C O N H C H H H
1 1 1 1 1 1 1 1 1 1 1 1 1 1 1 1 1 1 1 1 1 1
Cartesian
-25.89265513 -21.2000558   -8.42557023
   1.08214298  -1.08442124   3.7764367 
 -56.47328449  71.55072836  26.80043593
 -69.05554835  -4.90688482 -47.06128648
  -5.64372525   3.21077694   4.61656293
   2.18587956   1.7151394    0.34239682
  -1.10620527  -8.11872172  -4.40396138
 -71.85078327  33.81544004   7.05401878
   5.52559361   3.20724225   2.00936559
 -57.06100319 -37.14802371 -15.0742027 
   6.71249534   2.16674928   0.41245951
   9.01986527  -8.16229562  63.18734441
  -3.44524578 -85.35961347 -25.11653472
  34.31404566 -49.02519066  -3.06753845
   6.63134988   2.61597722   1.80184792
   4.34093316   1.94725673   3.70426734
  -0.50257942  -3.07326296 -11.22125706
 -28.56240395  19.51945579 -26.68728688
  12.21719235   7.08353245  -1.76728282
 -29.22387018 -39.37895369  42.33631742
 -55.16189123   7.35815951  31.11437022
 -41.15710592   5.90028675 -17.78879126
