AD_withoutwater
1.00000
26.063  0.     0.   
  0.    26.063  0.   
  0.     0.    26.063
H C H H C O N H C H C H H H C O N H C H H H
1 1 1 1 1 1 1 1 1 1 1 1 1 1 1 1 1 1 1 1 1 1
Cartesian
-3.62694517  1.35906061  1.08138692
 -2.81419019  0.61844049  0.97939246
 -3.49551488  0.19936672  0.21883012
 -3.4676791   0.03887774  1.65480744
 -1.47129875  0.6309496   0.97798759
 -1.06230242  1.64199821  1.10202971
 -0.80333968 -0.23390205  0.89225242
 -1.30438225 -1.11515636  0.83265567
  0.52841021 -0.64691264  0.80131899
  0.93043316  0.10684361  1.49253126
  0.96379443 -1.60875176  1.2882351 
  1.90803515 -2.15003642  1.47004999
  0.84575263 -2.67857779  1.05847497
  0.7770755  -2.24575315  2.170213  
  1.21434358 -0.19671063 -0.68606642
  2.29858258 -0.05483554 -0.65281834
  0.63803032 -0.10942237 -1.61201273
 -0.72761072 -0.3002726  -1.24844026
  0.77846368  0.05706811 -2.66305828
  1.36265365  0.71391828 -3.33008627
  1.34292374 -0.34233896 -3.53119239
  0.42908818  0.17330954 -3.70858432
