AD_withoutwater
1.00000
26.063  0.     0.   
  0.    26.063  0.   
  0.     0.    26.063
H C H H C O N H C H C H H H C O N H C H H H
1 1 1 1 1 1 1 1 1 1 1 1 1 1 1 1 1 1 1 1 1 1
Cartesian
-3.06174208  1.19459641  1.94287623
 -2.67732619  0.73750868  0.9125291 
 -1.91477655 -0.18590384 -0.12106102
 -2.81375101 -0.07032036  1.74125603
 -1.710609    0.33013774  0.96653897
 -1.16941587  1.32915134  1.04664397
 -0.22563606  0.45454167  0.96969108
 -2.35601755 -0.89387665  1.42480791
  0.22375401 -1.01524839  0.349816  
 -0.01541499  0.20705963  2.08354338
  1.03739127 -1.3560452   1.05692425
  1.68506427 -2.15212165  1.44146847
  0.69251292 -2.39728387  1.07062961
  0.71119299 -2.44308158  2.17376656
  1.23787883 -0.29716778  0.01727031
  2.08631003 -0.09824534 -0.65235707
  0.78532035 -0.08130579 -1.72875287
 -0.80936327  0.07891419  0.13865517
  0.60531214  0.13207249 -2.77392978
  1.71059869  0.42931795 -2.71715416
  1.47260359 -0.30408469 -3.72418442
  0.42101725 -0.14859242 -3.87857765
