AD_withoutwater
1.00000
26.063  0.     0.   
  0.    26.063  0.   
  0.     0.    26.063
H C H H C O N H C H C H H H C O N H C H H H
1 1 1 1 1 1 1 1 1 1 1 1 1 1 1 1 1 1 1 1 1 1
Cartesian
 -35.27373447  -20.90708609  -17.10295622
   11.38415608   -1.71474408    3.78747116
  -52.56782071   92.08684824   21.98056225
  -58.33472421  -32.83351792  -37.20366669
   -9.67794727    6.76975072    6.89426095
    4.29096121    1.11604842    0.42747844
   -2.92825129  -13.99803518   -4.04542539
  -92.7860662    36.15126722    3.0382494 
    6.3211288     4.66586466    1.99750118
  -99.60190652  -70.52844924  -33.06251039
    5.2882087     4.42018713    2.90544361
   11.14844997    3.65505818   62.23033241
   -8.58765665 -102.49573078  -28.17469562
   45.97673442  -70.62774792    5.49874684
    5.3868295     4.74036871    2.62051861
    4.96395077    2.61473756    4.09241305
   -3.27092873   -4.78004801  -18.00768894
  -25.62265886   38.86114501  -31.2660657 
   20.88953937   13.96385491   -1.32096772
  -52.49605605  -64.69839973   48.11671172
  -83.88197895   -4.93948804   65.68328995
  -77.77449489    7.24640258  -22.59227724
