AD_withoutwater
1.00000
26.063  0.     0.   
  0.    26.063  0.   
  0.     0.    26.063
H C H H C O N H C H C H H H C O N H C H H H
1 1 1 1 1 1 1 1 1 1 1 1 1 1 1 1 1 1 1 1 1 1
Cartesian
 -30.58784228  -22.78408657   -9.96751961
    6.23838817   -1.91090133    3.12103492
  -52.85648131   83.88028804   21.23349283
  -61.15822599  -20.59215093  -43.2530881 
   -7.94376017    5.02439454    6.15808043
    3.72306527    0.84926078    0.72949988
   -2.1655389   -11.47114542   -4.36249453
  -83.3641508    36.54465011    4.52963346
    5.47532392    3.7802984     2.62664204
  -78.5010395   -57.78960433  -25.66069541
    6.34510305    4.54051409    1.06549045
    9.67846123   -1.79557953   62.60141692
  -13.14770631 -101.21153174  -29.36143233
   41.6464795   -61.40914242   -0.02126635
    6.34637757    3.70940537    1.87409548
    4.25047939    3.05890431    4.40888154
   -1.9302494    -4.08781175  -15.08165839
  -28.31952906   30.49148459  -30.42075684
   17.34632031   10.75029753   -1.63948203
  -37.21134593  -47.86175994   49.38625913
  -73.11912033   -1.29445792   54.24415592
  -62.7915749    10.04205868  -18.40362102
