AD_withoutwater
1.00000
26.063  0.     0.   
  0.    26.063  0.   
  0.     0.    26.063
H C H H C O N H C H C H H H C O N H C H H H
1 1 1 1 1 1 1 1 1 1 1 1 1 1 1 1 1 1 1 1 1 1
Cartesian
-3.30531693  1.28655917  1.73071537
 -2.69614219  0.70130287  0.94671924
 -2.54997172 -0.07456415  0.05062896
 -3.09718779  0.05792568  1.78323308
 -1.62024286  0.35946004  0.95093366
 -1.14641224  1.43747056  1.06240586
 -0.3197921   0.28289779  0.97505296
 -1.69794298 -0.77501233  0.81768821
  0.29250823 -0.85899208  0.31716554
  0.35251498 -0.26755206  1.85237655
  1.02523135 -1.34200531  1.18594152
  1.76579655 -2.34449663  1.54512075
  0.68016471 -2.73513066  1.12306211
  0.78237212 -2.52066071  2.22226364
  1.1173539  -0.33422108 -0.07551767
  2.17757363 -0.07952618 -0.66280646
  0.73555259 -0.10076955 -1.65950608
 -1.11801331 -0.32959547  0.08285214
  0.66491391  0.12829281 -2.83200456
  1.66126438  0.63670743 -2.89495843
  1.35909785 -0.35408021 -3.58863063
  0.27518067 -0.08667765 -3.83754959
