AD_withoutwater
1.00000
26.063  0.     0.   
  0.    26.063  0.   
  0.     0.    26.063
H C H H C O N H C H C H H H C O N H C H H H
1 1 1 1 1 1 1 1 1 1 1 1 1 1 1 1 1 1 1 1 1 1
Cartesian
-22.8841243  -19.52817417  -8.47761692
  -1.20444895   0.73332103   3.71662556
 -56.49108214  62.60238905  29.05311102
 -66.96144099  -0.70516931 -43.47347702
  -4.23736594   2.19181863   3.96138128
   1.28741433   1.93862492   0.3911263 
  -0.60969002  -6.07986283  -4.19515498
 -60.02873318  28.78403042   9.15972822
   5.88848496   2.03520052   1.31726435
 -44.26372085 -26.71233734  -9.74715769
   6.656483     1.23818078   0.92349744
   8.9763164  -12.56239656  63.11084747
   1.00124401 -72.58654036 -20.75272759
  28.60763278 -41.14343968  -2.0361887 
   5.6418195    1.89901492   0.80640155
   4.4784267    1.37528077   3.11825667
   0.19184992  -2.44750492  -8.88140384
 -28.80581558  11.86157703 -23.75792555
   8.92933416   4.95251665  -1.68616091
 -23.30452223 -34.92295699  33.97816023
 -44.86621245  11.10211244  15.85975615
 -32.20806129   4.73859254 -20.94480799
