AD_withoutwater
1.00000
26.063  0.     0.   
  0.    26.063  0.   
  0.     0.    26.063
H C H H C O N H C H C H H H C O N H C H H H
1 1 1 1 1 1 1 1 1 1 1 1 1 1 1 1 1 1 1 1 1 1
Cartesian
-24.61786126 -20.60674148  -8.55161939
  -0.03587158  -0.36111798   3.84980391
 -54.82406397  68.76756232  26.93851527
 -71.02980902  -0.47649756 -48.199732  
  -5.03777689   2.79936502   4.30302567
   1.71982267   1.82526309   0.28096462
  -0.87998045  -7.23698625  -4.33047081
 -66.9522452   31.84012825   7.9779379 
   6.0789145    3.01647767   2.01574082
 -51.91929654 -31.86879899 -12.3610497 
   6.93762377   1.73048155   0.75397044
   8.96082686 -10.04573827  63.11980992
  -0.46335491 -79.79497902 -23.66242128
  31.93775647 -45.52086711  -2.72631329
   5.60217196   1.8977346    1.30652164
   4.63327165   1.59564541   3.39009213
  -0.15837963  -2.83143675 -10.21868924
 -30.32358696  15.20143827 -24.51282156
  10.80138306   6.16426985  -1.71254459
 -26.57407784 -37.54384827  38.75807656
 -50.88584878   9.19178893  24.3673444 
 -37.07430522   5.30606511 -18.8996383 
