AD_withoutwater
1.00000
26.063  0.     0.   
  0.    26.063  0.   
  0.     0.    26.063
H C H H C O N H C H C H H H C O N H C H H H
1 1 1 1 1 1 1 1 1 1 1 1 1 1 1 1 1 1 1 1 1 1
Cartesian
-28.66655509 -22.550016    -7.91162409
   4.14356678  -1.97337408   3.16238901
 -55.5318355   78.75619008  22.82736713
 -64.17677684 -15.0621096  -44.47838788
  -7.09522014   4.37085395   5.63516966
   3.28094345   1.10278785   0.79767728
  -1.76214283 -10.29876299  -4.40371043
 -79.39330785  36.04781254   4.86461805
   6.04989427   3.6043936    2.65995487
 -69.14269894 -51.90386723 -21.54204944
   6.80178262   3.47252122   0.54498313
   9.17564652  -3.8110067   62.84330107
  -9.83657537 -96.61383451 -29.39254005
  39.01415764 -57.29885327  -1.3938102 
   6.08729466   3.99358168   1.51265145
   3.84701707   2.75695278   4.40297265
  -1.40295303  -3.69926835 -13.73248982
 -27.80768893  27.44425573 -30.28116416
  15.65163829   9.39832043  -1.84141611
 -35.57856251 -43.86789886  49.56478084
 -66.42470816   1.43227316  46.47170164
 -55.00136955   8.77330681 -17.56715618
