AD_withoutwater
1.00000
26.063  0.     0.   
  0.    26.063  0.   
  0.     0.    26.063
H C H H C O N H C H C H H H C O N H C H H H
1 1 1 1 1 1 1 1 1 1 1 1 1 1 1 1 1 1 1 1 1 1
Cartesian
-3.85169505 -0.70491593 -0.06372122
 -3.02298722 -1.27784461  0.29623964
 -2.78483207 -2.00765547 -0.45033002
 -3.43246654 -1.84812529  1.17558855
 -1.88191368 -0.32570054  0.59728704
 -2.04117939  0.85575264  0.92995317
 -0.67354331 -0.87545053  0.44449778
 -0.62713655 -1.85984076  0.39783694
  0.52218707 -0.15257527  0.90084449
  0.20168458  0.7404369   1.46442715
  1.40593348 -1.00207966  1.75229686
  2.40065422 -0.5707057   2.0084269 
  1.63727912 -1.89647833  1.15453687
  0.99224968 -1.23759291  2.74386758
  1.29736074  0.4631579  -0.27351116
  2.44426463  0.89160705 -0.14003135
  0.63821585  0.6007296  -1.4646306 
 -0.32300771  0.24709849 -1.52411707
  1.47295623  0.86130862 -2.66189665
  1.89578712  1.84731987 -2.59447713
  2.30599315  0.14896375 -2.73481419
  0.82915891  0.80137959 -3.53387158
