AD_withoutwater
1.00000
26.063  0.     0.   
  0.    26.063  0.   
  0.     0.    26.063
H C H H C O N H C H C H H H C O N H C H H H
1 1 1 1 1 1 1 1 1 1 1 1 1 1 1 1 1 1 1 1 1 1
Cartesian
 -34.38961538  -21.30950087  -15.78532549
   10.36469004   -1.72648122    3.68751456
  -51.41017486   90.38782574   21.18175077
  -56.40096214  -30.66061094  -40.02876079
   -9.34590835    6.38356727    6.81454161
    4.24714123    1.13142426    0.56742969
   -2.86820896  -13.48521505   -4.16295376
  -91.41429603   36.45689929    3.45767165
    6.2347952     4.52428994    1.70849604
  -95.42114602  -67.87726754  -31.86873507
    5.67162487    3.81771335    2.93863755
   10.86742795    2.3775522    62.27745278
   -9.56656477 -102.41323947  -28.39611488
   45.70293018  -68.69542153    3.91388393
    5.42983686    5.31559427    2.04306407
    4.69521327    2.41742889    4.38046237
   -2.99608716   -4.63947866  -17.39122951
  -26.19470178   36.69547651  -30.67674551
   20.19975584   13.3540944    -1.3679067 
  -49.35299423  -61.17996323   48.38766831
  -84.17791728   -3.92083733   64.72616742
  -75.34962273    8.93103706  -21.1342634 
