AD_withoutwater
1.00000
26.063  0.     0.   
  0.    26.063  0.   
  0.     0.    26.063
H C H H C O N H C H C H H H C O N H C H H H
1 1 1 1 1 1 1 1 1 1 1 1 1 1 1 1 1 1 1 1 1 1
Cartesian
-29.33855838 -22.96142357  -7.83975294
   5.08044106  -1.94086138   3.06038986
 -54.00599731  80.35810624  21.01344655
 -62.94658748 -17.6904364  -43.837996  
  -7.50140533   4.6588363    5.88067719
   3.49558927   0.89116339   0.78671745
  -1.94815001 -10.85203992  -4.39033958
 -81.16767367  36.31741174   4.58995579
   5.74227882   3.71839871   2.77582788
 -73.29959015 -54.98951212 -23.63916392
   6.65927856   4.03388792   0.27651197
   9.37353672  -2.84205731  62.7733609 
 -10.17328278 -98.02858101 -28.62363579
  40.26341148 -59.23985884  -0.73851871
   6.41960443   3.9842956    1.84621126
   3.8550302    2.88674393   4.61410435
  -1.64661187  -3.88038323 -14.36571278
 -28.58941114  30.03409252 -30.38692126
  16.47681095  10.01758991  -1.76545573
 -37.67916039 -46.40260711  48.83520486
 -69.44944494  -0.27662149  50.34884632
 -58.69091862   9.47298548 -17.82012834
