AD_withoutwater
1.00000
26.063  0.     0.   
  0.    26.063  0.   
  0.     0.    26.063
H C H H C O N H C H C H H H C O N H C H H H
1 1 1 1 1 1 1 1 1 1 1 1 1 1 1 1 1 1 1 1 1 1
Cartesian
 -31.29904352  -22.62572154  -11.1557921 
    7.04109418   -1.91459604    3.27765459
  -53.32100576   85.57367839   21.71448431
  -60.16062258  -22.15148339  -42.61697194
   -8.22116888    5.2577237     6.29952752
    3.7775313     0.82744283    0.59384523
   -2.29054152  -11.8695543    -4.34281812
  -84.90423274   36.61846858    4.52124529
    5.53029692    3.73610894    2.58239189
  -81.69439745  -59.34304355  -27.02494447
    6.32934712    4.82759071    1.27216447
    9.92317344   -1.12594018   62.48632401
  -12.72033172 -101.73287677  -29.19141902
   42.46783224  -62.79876667    0.36852514
    6.05521911    3.73328504    2.05996082
    4.42082203    3.10765316    4.38907578
   -2.12014169   -4.20643477  -15.52204166
  -27.04719929   31.19706642  -31.0118802 
   17.89286789   11.21737768   -1.57959014
  -39.2278636   -50.1715245    49.14296388
  -75.44105801   -1.97730985   56.38727563
  -65.26901576   10.05614063  -18.81573632
