AD_withoutwater
1.00000
26.063  0.     0.   
  0.    26.063  0.   
  0.     0.    26.063
H C H H C O N H C H C H H H C O N H C H H H
1 1 1 1 1 1 1 1 1 1 1 1 1 1 1 1 1 1 1 1 1 1
Cartesian
-1.16763561 -1.58382571  1.09372523
 -0.46986745  0.20102834  0.93901207
 -1.22170301 -1.14225581 -0.16781183
  0.60786427  0.48092713  0.6094432 
 -1.50847202  0.53624813  0.51662718
  0.63729465  0.24604993  1.89005569
 -0.23565745  1.194743    0.67413062
 -1.72579728  2.12013735  3.34067116
 -0.21656813  0.01188372 -0.2314678 
 -1.44984404 -0.46953388  1.18524426
  0.57985485 -0.70778188 -1.4115111 
 -0.9870474  -0.29251593 -0.94004847
 -0.28410852 -1.33327667 -1.96502936
 -1.38713712 -2.2115687   0.08823351
 -0.40382584 -0.86600253  1.4243159 
 -0.24560749 -1.55571102 -0.81047986
  1.0722662   0.33549442 -1.63924007
 -1.41818336 -0.58591042  3.30924192
  1.59380771  1.38319601 -2.19632406
 -0.82064754  0.11855417  2.07836577
 -0.19154422 -1.03877792  0.16967081
  0.02274557 -0.69238337  2.4927402 
