AD_withoutwater
1.00000
26.063  0.     0.   
  0.    26.063  0.   
  0.     0.    26.063
H C H H C O N H C H C H H H C O N H C H H H
1 1 1 1 1 1 1 1 1 1 1 1 1 1 1 1 1 1 1 1 1 1
Cartesian
-0.67810416  0.06043342 -0.0659591 
 -1.40237233  1.24788488  0.75483544
 -1.12291535 -0.84688359  0.78505873
 -0.14391389 -0.90671271  1.75537477
 -1.87470446  0.45796199  1.72310277
 -0.80632356  0.15063699  1.25832829
 -0.13098152  1.80790224  0.82755209
 -2.86181099 -0.55252852  3.30892794
  0.32505027 -1.36855743  0.03599191
 -2.0352924  -0.11764925  0.37952058
  1.37911635 -0.83654188  0.12909138
  0.78020096 -1.08765609  1.06510033
 -0.17421994 -1.71924885  0.97194686
  0.97921723 -2.31496654  0.85218074
  0.30145508 -0.25839173  0.40476378
  0.28560035 -0.69630559 -0.81594958
  1.44011233  0.68005349 -1.85983352
  0.71588985 -2.60858138 -1.91508574
  0.8079596  -0.14597779 -2.34141232
  1.03611581 -1.65292826 -0.83210734
  1.4584904  -1.54610581 -1.74417168
  0.39278298 -1.32994965 -2.05069411
