AD_withoutwater
1.00000
26.063  0.     0.   
  0.    26.063  0.   
  0.     0.    26.063
H C H H C O N H C H C H H H C O N H C H H H
1 1 1 1 1 1 1 1 1 1 1 1 1 1 1 1 1 1 1 1 1 1
Cartesian
-26.77625494 -21.59749961  -8.27351038
   1.92372231  -1.520259     3.66000327
 -55.18803184  72.83062739  24.63598434
 -67.63230195  -7.86365    -46.30862808
  -6.05526773   3.5419894    4.8769298 
   2.4114977    1.56450537   0.33330901
  -1.29642576  -8.72952807  -4.41376148
 -74.64543375  34.79456354   6.25645247
   5.71563555   3.6394653    2.15453246
 -60.58386182 -41.26770432 -16.91731498
   6.55521397   2.44825392   0.38729824
   9.01458795  -6.82619828  63.12582077
  -5.38343713 -88.94616465 -26.36228635
  35.84738423 -51.64927447  -2.89165791
   6.86373521   3.02442562   1.74736051
   4.13847594   2.10367934   4.06074623
  -0.75288742  -3.24293729 -11.94553401
 -29.54634998  22.69979707 -26.58471981
  13.22942351   7.73158431  -1.80697934
 -31.28455766 -40.56265102  44.75660954
 -58.2799827    5.71080485  35.76391193
 -44.64918398   6.55177569 -17.28419343
