AD_withoutwater
1.00000
26.063  0.     0.   
  0.    26.063  0.   
  0.     0.    26.063
H C H H C O N H C H C H H H C O N H C H H H
1 1 1 1 1 1 1 1 1 1 1 1 1 1 1 1 1 1 1 1 1 1
Cartesian
-1.19006393 -1.62524128  1.12391326
 -0.46772019  0.1815188   0.92402923
 -1.24418162 -1.11783137 -0.09305241
  0.55332549  0.46150599  0.61776989
 -1.49589112  0.53851651  0.50059561
  0.65142784  0.24685167  1.88641759
 -0.24169222  1.17870235  0.68111825
 -1.74043029  2.13497112  3.36089861
 -0.21636352  0.03255081 -0.22923233
 -1.42538634 -0.48331325  1.16185867
  0.57470306 -0.72300694 -1.40524641
 -1.00873452 -0.34085641 -0.92429766
 -0.31551251 -1.31058986 -1.95910832
 -1.36953305 -2.19793546  0.05622688
 -0.40394251 -0.86070248  1.42088204
 -0.24747778 -1.54525497 -0.80503817
  1.07674723  0.34361325 -1.62513351
 -1.45729746 -0.53807109  3.31548072
  1.58879603  1.38100791 -2.20500378
 -0.92275243  0.12122243  2.06571658
 -0.18009265 -1.04161167  0.17739793
  0.04611145 -0.65999359  2.48068407
