AD_withoutwater
1.00000
26.063  0.     0.   
  0.    26.063  0.   
  0.     0.    26.063
H C H H C O N H C H C H H H C O N H C H H H
1 1 1 1 1 1 1 1 1 1 1 1 1 1 1 1 1 1 1 1 1 1
Cartesian
 -36.60347413  -22.65497586  -16.29263086
   13.2717175    -1.66234838    3.93366039
  -54.05369444   93.49701207   22.31099495
  -59.5958508   -33.81502364  -34.94762952
  -10.35576483    7.61840326    6.73564217
    4.47484564    1.41945739    0.27719167
   -3.15706491  -15.49915814   -3.91396603
  -94.69460859   35.57794711    2.42256402
    6.09195553    5.16464331    2.55393458
 -107.3173476   -75.53014138  -35.48871392
    4.85728751    5.50342165    2.29865591
   12.40067835    6.25710738   61.73369851
   -6.86641494 -102.678185    -27.73991534
   46.20576426  -74.64650898    8.70722034
    5.38003832    4.16418434    3.12809527
    5.32530995    2.20265801    4.24532919
   -3.77101611   -5.06652122  -19.16235461
  -27.75141441   41.4867122   -29.40583422
   22.09860824   15.21734991   -1.2072144 
  -54.12044143  -61.27706592   47.96065447
  -85.34772333   -9.76087267   70.43711587
  -81.47473514    3.40428091  -25.01340701
