AD_withoutwater
1.00000
26.063  0.     0.   
  0.    26.063  0.   
  0.     0.    26.063
H C H H C O N H C H C H H H C O N H C H H H
1 1 1 1 1 1 1 1 1 1 1 1 1 1 1 1 1 1 1 1 1 1
Cartesian
-0.51515321 -0.59866765  0.09072803
 -1.33693161  1.17103142  0.90863451
 -1.37451752 -1.11088603  0.40287879
 -0.06672178 -0.48171466  1.29153738
 -1.74309326  0.47476821  1.56208458
 -0.86940283  0.24056185  1.0210017 
 -0.34383173  1.72668257  0.91005632
 -2.93280955 -0.84858529  3.34335222
  0.16782148 -1.32608797  0.12408361
 -2.00968592  0.0473702   0.23034344
  1.2507248  -1.07193332  0.18149983
  0.7247183  -1.36851537  1.04044018
 -0.46172156 -1.46426675  1.17305523
  1.95574104 -2.13830735  0.69332567
  0.64584656 -0.18647945  0.31713568
  0.5297156  -0.44545188 -0.72793195
  1.29788082  0.46043966 -1.61868524
  0.24295559 -1.89957043 -1.42596158
  0.68324234 -0.16872928 -2.47760082
  1.06233749 -1.38521247 -0.99244227
  1.74309272 -0.95208335 -2.14830844
  0.47724637 -1.21290971 -2.25603871
