AD_withoutwater
1.00000
26.063  0.     0.   
  0.    26.063  0.   
  0.     0.    26.063
H C H H C O N H C H C H H H C O N H C H H H
1 1 1 1 1 1 1 1 1 1 1 1 1 1 1 1 1 1 1 1 1 1
Cartesian
-3.90084476  0.09714417  0.31627313
 -3.14051049 -0.69296867  0.23866433
 -3.02172118 -0.94831097 -0.85929198
 -3.40581982 -1.57140166  0.8139174 
 -1.79583896 -0.06963811  0.71196859
 -1.76314179  0.98713623  1.30618262
 -0.65132069 -0.85544801  0.58650349
 -0.66492955 -1.87524176  0.54654944
  0.62089358 -0.18014431  0.85641678
  0.4070231   0.74064839  1.4108505 
  1.51684957 -1.00700906  1.75118123
  2.45945217 -0.47534748  2.01351032
  1.73521874 -1.94348209  1.2812273 
  0.98628996 -1.13327032  2.69760001
  1.3661544   0.19764094 -0.44079986
  2.57718432  0.39570622 -0.46176479
  0.53617148  0.32976503 -1.45605325
 -0.34233238 -0.1692162  -1.38502969
  0.92349836  0.91520642 -2.72853694
  1.24766332  1.9365244  -2.53610578
  1.79988002  0.37322802 -3.17112896
  0.09687702  0.81511095 -3.43064849
