AD_withoutwater
1.00000
26.063  0.     0.   
  0.    26.063  0.   
  0.     0.    26.063
H C H H C O N H C H C H H H C O N H C H H H
1 1 1 1 1 1 1 1 1 1 1 1 1 1 1 1 1 1 1 1 1 1
Cartesian
 -35.89505775  -21.7609924   -16.77961842
   12.3939838    -1.68965488    3.87125002
  -52.93052707   92.37376401   21.86307855
  -59.83553904  -33.17876007  -35.68172191
  -10.03024573    7.23651815    6.80983819
    4.3486131     1.16999021    0.28530865
   -3.0055718   -14.71042141   -3.97122777
  -93.86033619   35.89530141    2.65289018
    6.28284099    4.91471032    2.31724878
 -103.73023928  -73.16881989  -34.3582908 
    4.96331034    5.13098282    2.63522353
   11.63930845    5.00580686   62.06947724
   -7.6834478  -102.59120425  -27.96243557
   46.10670383  -72.82827366    7.26840412
    5.3905245     4.26595341    3.06492543
    5.19027311    2.53470011    4.0457714 
   -3.53142758   -4.92679386  -18.62343805
  -27.39674292   40.77241324  -29.75619608
   21.52846841   14.62824916   -1.23545755
  -53.55576519  -64.13434923   47.52521978
  -83.91889222   -7.78394661   67.9353153 
  -79.73061049    5.1550908   -23.99243934
