AD_withoutwater
1.00000
26.063  0.     0.   
  0.    26.063  0.   
  0.     0.    26.063
H C H H C O N H C H C H H H C O N H C H H H
1 1 1 1 1 1 1 1 1 1 1 1 1 1 1 1 1 1 1 1 1 1
Cartesian
-3.11660797  0.16936485  1.18056962
 -2.26612446  0.92484519  0.8551761 
 -2.58703703 -0.26249753  0.36822413
 -2.03943    -0.93100615  1.66146212
 -1.74765326  0.08191276  1.18350245
 -1.01797765  0.80640523  0.76152392
  0.13806198  1.43034682  1.14347277
 -2.92434683 -1.70457877  2.8687506 
  0.05213079 -1.29381579  0.31618351
 -2.45547138  0.28214112  1.9517849 
  1.15932898 -1.43702054  0.59968774
  0.75694919 -2.35877772  1.10417335
 -0.04819323 -2.3166411   0.41146682
  1.00502452 -1.55271475  1.71862025
  1.28171374  0.07172334  0.28760252
  1.3703092  -0.22726817 -0.71628976
  1.10681861 -0.02633859 -1.8058872 
 -1.27775356 -0.17811028  0.28266328
  0.44342864  0.10316555 -2.57334432
  1.92293901 -0.69134395 -1.90733571
  2.13893749  0.25274995 -2.42205025
  1.32024358 -0.39841825 -3.11363525
