AD_withoutwater
1.00000
26.063  0.     0.   
  0.    26.063  0.   
  0.     0.    26.063
H C H H C O N H C H C H H H C O N H C H H H
1 1 1 1 1 1 1 1 1 1 1 1 1 1 1 1 1 1 1 1 1 1
Cartesian
-19.91104606 -17.22486539  -7.98032373
  -2.33383374   2.21045503   3.37975649
 -53.82518555  54.45888518  29.69913151
 -58.4622591   -3.1866458  -33.94124832
  -3.38396345   1.20291616   3.55501208
   1.07924679   2.20809362   0.43125747
  -0.28529737  -4.37243237  -4.02131527
 -50.04456905  24.47270419   9.45126111
   5.25245972   0.4047461    0.20533441
 -32.25722238 -19.60889577  -6.67119203
   6.30112185   1.19899779   0.47155663
   8.35962778 -11.90020415  53.98617372
   0.87103958 -61.54224474 -17.06706272
  23.59169424 -34.60690704  -1.4722311 
   5.26133006   0.96161921   0.733857  
   4.25741222   1.46175173   2.77219243
   0.64919402  -1.88708982  -6.77586815
 -27.44833254   5.0681822  -20.06274515
   6.01369339   3.24386072  -1.69212508
 -18.4085581  -30.75310195  27.21200553
 -35.51843883   9.03927891  12.88860672
 -27.82987428   5.17539268 -22.47335134
