AD_withoutwater
1.00000
26.063  0.     0.   
  0.    26.063  0.   
  0.     0.    26.063
H C H H C O N H C H C H H H C O N H C H H H
1 1 1 1 1 1 1 1 1 1 1 1 1 1 1 1 1 1 1 1 1 1
Cartesian
-27.12044996 -21.76517083  -8.21306606
   2.26813905  -1.68367659   3.5904288 
 -54.54803109  74.26208486  23.94691022
 -67.051113    -9.05251768 -45.97811278
  -6.22120738   3.68434559   4.99263427
   2.5079343    1.48709686   0.35349147
  -1.37288911  -8.98256421  -4.41365315
 -75.55277398  35.08961652   5.97959286
   5.79344986   3.80409771   2.50360815
 -61.98366786 -42.97811099 -17.6772591 
   6.65515461   2.49797379   0.3585917 
   9.01619284  -6.30353479  63.06560229
  -6.17687755 -90.31907603 -26.91128631
  36.35155322 -52.61036178  -2.64314199
   6.80146723   3.22571351   1.48187682
   4.04407564   2.20704454   4.1727722 
  -0.85842013  -3.31045177 -12.23684855
 -29.98460234  22.90093862 -26.81013524
  13.63691944   7.99984581  -1.82181486
 -32.13552646 -41.08152076  45.74034919
 -59.59391209   5.01111177  37.54438549
 -46.19704459   6.87623819 -17.20910649
