AD_withoutwater
1.00000
26.063  0.     0.   
  0.    26.063  0.   
  0.     0.    26.063
H C H H C O N H C H C H H H C O N H C H H H
1 1 1 1 1 1 1 1 1 1 1 1 1 1 1 1 1 1 1 1 1 1
Cartesian
-0.86658176  0.1007002   0.34811495
 -0.95410343  0.99862104  0.94238454
 -0.19636897 -0.35578563 -0.66001513
  0.94918741 -0.60934665  0.81468667
 -2.08747557  0.78017283  1.62921736
 -0.57169     0.15783618  1.78964074
  0.13759964  1.38681223  0.45999631
 -2.33458969  0.83556523  2.62065451
  0.11613077 -1.14048069  0.20543562
 -1.40431288 -0.11075474  1.2518131 
  0.77944695 -0.34160714 -0.92047696
  0.13796972  0.39274852  0.04390586
 -0.63809225 -2.23305489 -1.30423897
  2.77840948 -3.02192371  0.42143693
 -0.34569565 -0.8007499   1.13738213
  0.02294217 -1.39616985 -0.99756005
  1.43173296  0.82533881 -2.68915353
  2.39068492 -1.52851563  0.71153922
  1.26621459  0.35381119 -1.60169237
  1.43041103 -0.75533868 -0.08429747
  0.68795508 -1.82616585  1.41346213
  1.32753484  0.34303055 -0.16932604
