AD_withoutwater
1.00000
26.063  0.     0.   
  0.    26.063  0.   
  0.     0.    26.063
H C H H C O N H C H C H H H C O N H C H H H
1 1 1 1 1 1 1 1 1 1 1 1 1 1 1 1 1 1 1 1 1 1
Cartesian
-24.89083017 -20.74334899  -8.52350744
   0.19521496  -0.53324094   3.83271114
 -55.16499248  69.81174887  27.06577339
 -70.57268514  -1.49738274 -47.89783393
  -5.17009604   2.89062188   4.36517934
   1.81419051   1.80370867   0.28221677
  -0.92922028  -7.42586208  -4.34949368
 -68.09249047  32.30651258   7.81417684
   6.01554209   3.01103484   1.97012326
 -53.03250343 -32.94430701 -12.96773338
   7.02587379   1.81172376   0.60721345
   8.96750592  -9.64842785  63.13185526
  -1.09772135 -80.95837337 -23.92046017
  32.44298772 -46.24369429  -2.86378178
   5.73405023   2.15074789   1.41030443
   4.50732583   1.64280776   3.55436433
  -0.23349433  -2.88070228 -10.43286322
 -29.96641793  15.68059151 -25.10329376
  11.11002099   6.36522339  -1.72215849
 -27.1325966  -37.97603183  39.55699634
 -51.83603429   8.79121903  25.8319854 
 -37.88148737   5.41958037 -18.62959441
