AD_withoutwater
1.00000
26.063  0.     0.   
  0.    26.063  0.   
  0.     0.    26.063
H C H H C O N H C H C H H H C O N H C H H H
1 1 1 1 1 1 1 1 1 1 1 1 1 1 1 1 1 1 1 1 1 1
Cartesian
-3.00265425  1.16505068  1.92974683
 -2.6868928   0.74581858  0.91023894
 -1.84595009 -0.19446272 -0.16559154
 -2.79667999  0.02013331  1.73919797
 -1.706779    0.32600724  0.97647475
 -1.17223698  1.30823846  1.04413013
 -0.21396345  0.48247751  0.97037088
 -2.38360522 -0.99273383  1.47350346
  0.21675218 -1.03466026  0.35632272
 -0.05591192  0.25638369  2.13656386
  1.03192649 -1.351517    1.0335816 
  1.74750368 -2.19242427  1.44850046
  0.69535884 -2.32086163  1.04858665
  0.68794572 -2.42492222  2.17643697
  1.25200242 -0.29456564  0.03197301
  2.07219624 -0.10116016 -0.65113473
  0.79407747 -0.0783361  -1.73733717
 -0.81903165  0.09146923  0.07905524
  0.60090195  0.13227243 -2.77006986
  1.67661103  0.3917899  -2.67663631
  1.5125472  -0.30115287 -3.70626301
  0.39026013 -0.14710425 -3.88630776
