AD_withoutwater
1.00000
26.063  0.     0.   
  0.    26.063  0.   
  0.     0.    26.063
H C H H C O N H C H C H H H C O N H C H H H
1 1 1 1 1 1 1 1 1 1 1 1 1 1 1 1 1 1 1 1 1 1
Cartesian
-1.76961768 -0.38165524  0.26761346
 -1.88007754  1.1189756   0.83466357
 -1.45887589 -1.38978626  0.72751753
 -1.77831787 -1.15194919  1.78507865
 -1.68255909  0.06251583  1.39421621
 -0.92633337  0.58259878  0.70795053
  0.00598902  1.69242638  1.10279533
 -3.08645823 -1.52164885  3.37164915
 -0.02667571 -1.13161923  0.1572706 
 -2.69621228 -0.69390116  1.39115981
  1.23225457 -1.39324191  0.34883665
  0.40454735 -1.72856317  1.0070923 
 -0.65751593 -2.08382868  0.77141155
  1.49743446 -1.87497547  1.27836435
  1.11772952  0.230709    0.45995289
  0.93898813 -0.48450792 -0.58119898
  1.29695737  0.02912493 -1.76463845
 -0.86121593 -0.65323856 -0.21847266
  0.30379845  0.11355752 -2.62941191
  1.96116974 -0.95609985 -1.65793128
  2.3090238   0.00779629 -1.9916161 
  1.71681185 -0.61138829 -2.697454  
