AD_withoutwater
1.00000
26.063  0.     0.   
  0.    26.063  0.   
  0.     0.    26.063
H C H H C O N H C H C H H H C O N H C H H H
1 1 1 1 1 1 1 1 1 1 1 1 1 1 1 1 1 1 1 1 1 1
Cartesian
-3.89714356  0.53772709  0.89806032
 -3.17736508 -0.25736348  0.71524568
 -3.30960382 -0.59380637 -0.29295916
 -3.40964637 -1.1054977   1.39851992
 -1.79586159  0.2618393   0.93065165
 -1.57375992  1.32140729  1.42902257
 -0.78904881 -0.60163306  0.60804335
 -0.96546579 -1.58600034  0.61504255
  0.61966195 -0.27167899  0.79925772
  0.67301864  0.66622234  1.38899515
  1.4190606  -1.34621217  1.52354734
  2.43528409 -1.04395259  1.56411309
  1.31345362 -2.34168549  1.04180583
  1.1070242  -1.33334598  2.59009355
  1.33199656  0.07295093 -0.5332792 
  2.54354416  0.01895094 -0.62297152
  0.52651943  0.36401182 -1.57788229
 -0.45250263  0.20040417 -1.4118006 
  1.08025552  0.49722155 -2.9195147 
  1.92215103  1.22293416 -2.84714895
  1.44507437 -0.49892476 -3.23821325
  0.29861463  0.84317822 -3.62154832
