AD_withoutwater
1.00000
26.063  0.     0.   
  0.    26.063  0.   
  0.     0.    26.063
H C H H C O N H C H C H H H C O N H C H H H
1 1 1 1 1 1 1 1 1 1 1 1 1 1 1 1 1 1 1 1 1 1
Cartesian
-3.61178583  1.06432518  1.09022426
 -2.61700789  0.64184008  0.98219933
 -3.48181489  0.29835383  0.44721734
 -3.45382537  0.10663679  1.44574136
 -1.52333667  0.53072385  0.97998286
 -1.10354356  1.54799578  1.08456719
 -0.57011874 -0.10197878  0.88711556
 -1.32677281 -1.10407672  0.82436849
  0.24856694 -0.64139619  0.62808286
  0.81275881 -0.34234768  1.57488004
  0.97692203 -1.46646301  1.30873057
  1.79256856 -2.24125068  1.44293818
  0.87844948 -2.75482809  0.94729268
  0.84587347 -2.08428812  2.15440172
  1.17904081 -0.24778127 -0.48735568
  2.24595825 -0.06458796 -0.65764595
  0.68593437 -0.11621728 -1.58447743
 -0.64059152 -0.35947845 -0.730224  
  0.74436243  0.08794991 -2.75748309
  1.46924296  0.81595222 -3.15546669
  1.29647075 -0.43723647 -3.51873939
  0.24597918  0.10417388 -3.80901867
