AD_withoutwater
1.00000
26.063  0.     0.   
  0.    26.063  0.   
  0.     0.    26.063
H C H H C O N H C H C H H H C O N H C H H H
1 1 1 1 1 1 1 1 1 1 1 1 1 1 1 1 1 1 1 1 1 1
Cartesian
 -31.65104474  -22.55989677  -11.74615962
    7.43888168   -1.90303293    3.34475575
  -53.6436593    85.79505667   21.86552712
  -59.68652064  -22.92577026  -42.21864881
   -8.35387065    5.37410046    6.35589864
    3.78192278    0.78237844    0.50562383
   -2.35157124  -12.06055978   -4.33389543
  -85.68110049   36.63302546    4.49675106
    5.58337224    3.73698111    2.5606591 
  -83.25651709  -60.09777028  -27.68957618
    6.32238424    4.83174461    1.43626152
   10.03697696   -0.79589948   62.43325917
  -12.48427806 -101.97984292  -29.12525426
   42.91600009  -63.54183155    0.55027368
    5.97433424    3.93167018    2.04076435
    4.4607004     3.09458506    4.43998494
   -2.21426339   -4.26234486  -15.73631946
  -26.35906286   32.15075797  -31.22347182
   18.15389221   11.45287057   -1.54036582
  -40.22050672  -51.30842048   49.03616706
  -76.61548363   -2.28672672   57.49133526
  -66.45582415   10.03770097  -19.0307966 
