AD_withoutwater
1.00000
26.063  0.     0.   
  0.    26.063  0.   
  0.     0.    26.063
H C H H C O N H C H C H H H C O N H C H H H
1 1 1 1 1 1 1 1 1 1 1 1 1 1 1 1 1 1 1 1 1 1
Cartesian
 -30.53266455  -22.79758844   -9.87336141
    6.18443352   -1.91257793    3.11334512
  -52.84300101   83.7080962    21.19545461
  -61.24556646  -20.46500163  -43.27666804
   -7.92221086    5.00634427    6.14416949
    3.71524245    0.84872183    0.73565326
   -2.15579862  -11.44055834   -4.36427685
  -83.25071165   36.5359213     4.53310807
    5.44819031    3.76767099    2.67245902
  -78.25547317  -57.66534291  -25.55554601
    6.35697247    4.51537289    1.03558176
    9.66154957   -1.84570494   62.61168458
  -13.11984573 -101.13322585  -29.35950707
   41.57964751  -61.30134993   -0.05270661
    6.37469477    3.72483583    1.84866019
    4.2445771     3.05960714    4.40090868
   -1.9158322    -4.07879252  -15.04728068
  -28.39622843   30.47613396  -30.37776635
   17.30388192   10.71447163   -1.64529596
  -37.11329154  -47.71609951   49.38957303
  -73.00679954   -1.23207673   54.05925184
  -62.59343424   10.03271689  -18.37441989
