AD_withoutwater
1.00000
26.063  0.     0.   
  0.    26.063  0.   
  0.     0.    26.063
H C H H C O N H C H C H H H C O N H C H H H
1 1 1 1 1 1 1 1 1 1 1 1 1 1 1 1 1 1 1 1 1 1
Cartesian
 -37.62250862  -23.65290825  -15.72701774
   14.99658426   -1.66378667    4.04837001
  -55.29248146   97.84787869   21.93935886
  -59.53006854  -37.94040476  -30.67100239
  -10.97062229    8.29679473    6.58786106
    4.77493698    1.8114248     0.14303726
   -3.46451174  -17.00460309   -3.77599302
  -96.45787837   34.92280026    2.05508291
    5.74199093    5.93669666    2.5296068 
 -114.29795183  -79.96716275  -37.85831218
    5.12592214    5.23603442    2.30963873
   14.05725248    8.06837604   61.63277768
   -7.7372582  -103.91342594  -30.26963914
   45.67074549  -78.00493327   11.50957586
    4.97933226    4.88969854    3.21658122
    5.4997754     1.5109971     4.64527642
   -4.26830822   -5.35008521  -20.20294708
  -29.24527707   45.87415607  -30.31106852
   23.07605829   16.23764297   -0.9920679 
  -55.01517594  -59.3364881    48.43139779
  -86.9704123   -10.37513405   73.1830193 
  -82.25681541    1.07931269  -24.00044284
