AD_withoutwater
1.00000
26.063  0.     0.   
  0.    26.063  0.   
  0.     0.    26.063
H C H H C O N H C H C H H H C O N H C H H H
1 1 1 1 1 1 1 1 1 1 1 1 1 1 1 1 1 1 1 1 1 1
Cartesian
-2.55223554  1.4503303   1.85987739
 -2.75654004  0.83218346  0.86405793
 -1.66063409 -0.14017208 -0.08963676
 -2.31953663 -0.21418203  1.70407996
 -1.6772222   0.22159649  1.02032064
 -1.1595903   1.15109166  1.02124367
 -0.15460074  0.70108595  1.00169783
 -2.54746014 -1.40600654  1.783133  
  0.1276544  -1.15004335  0.36973817
 -0.46185949  0.6937986   2.03466467
  1.09172856 -1.26646629  0.89582107
  1.58535936 -2.28447498  1.32714607
  0.62575336 -2.42292506  0.87790348
  0.70444584 -2.1006763   2.02854324
  1.28619424 -0.31924955  0.20126949
  1.98562344 -0.11799618 -0.67690625
  0.87883823 -0.06218421 -1.74907287
 -0.77339016  0.34810259  0.12875431
  0.52866551  0.13439714 -2.8130431 
  1.83463945  0.05438895 -2.27841948
  1.39992249 -0.10198079 -3.33180632
  0.42952991 -0.17732092 -3.94254952
