AD_withoutwater
1.00000
26.063  0.     0.   
  0.    26.063  0.   
  0.     0.    26.063
H C H H C O N H C H C H H H C O N H C H H H
1 1 1 1 1 1 1 1 1 1 1 1 1 1 1 1 1 1 1 1 1 1
Cartesian
 -37.6274731   -23.65907934  -15.71981441
   15.01765705   -1.66383866    4.05012443
  -55.26944982   97.87645831   21.94192648
  -59.55866418  -37.97433547  -30.60298177
  -10.97682134    8.30488463    6.58346365
    4.77849825    1.81151238    0.13960843
   -3.46813091  -17.02301463   -3.77488717
  -96.44381731   34.95704174    2.0468237 
    5.73270054    5.94023929    2.53041597
 -114.38046214  -80.01697055  -37.89299307
    5.12705311    5.23804786    2.31001084
   14.06051023    8.07695674   61.66581949
   -7.76192217 -103.93591872  -30.31806282
   45.65577075  -78.04632768   11.54564246
    4.97956406    4.90512891    3.22065823
    5.50119938    1.50060373    4.64949545
   -4.27490772   -5.3535184   -20.2155529 
  -29.25973992   45.91510652  -30.28708507
   23.08752101   16.24999718   -0.98884177
  -55.07171698  -59.2823389    48.38376303
  -86.94902784  -10.39303001   73.20602632
  -82.25084999    1.05552896  -23.97595787
