AD_withoutwater
1.00000
26.063  0.     0.   
  0.    26.063  0.   
  0.     0.    26.063
H C H H C O N H C H C H H H C O N H C H H H
1 1 1 1 1 1 1 1 1 1 1 1 1 1 1 1 1 1 1 1 1 1
Cartesian
-1.12163808 -0.48154597  0.37187416
 -0.71999494  0.48235205  1.2686675 
 -1.12992067 -1.20477815 -0.53231206
  0.26842989  0.13480288  0.72927344
 -1.86478613  0.52536589  1.13703096
  0.22945971  0.17196512  1.87718078
  0.03920409  1.4887922   0.45329957
 -0.98504554  1.04300001  2.00144313
 -0.09471279 -0.60745119 -0.04440731
 -1.42400095 -0.39794956  1.46606496
  0.57197524 -0.53646921 -1.26174182
 -0.70028909 -1.11318102 -1.76080265
  0.5447099  -1.40089903 -1.86119903
 -1.18877922 -1.54639022  1.73045431
 -0.32305429 -0.59759144  1.04280257
 -0.08799747 -1.53674363 -0.81680239
  1.09672293  0.44238015 -2.39936675
 -0.6175537  -2.23144382  2.66902691
  1.7019786   1.26214278 -1.72700013
  0.0060832  -1.62776967  1.89696748
 -0.85212634 -1.43440288  0.61165509
  0.61564202 -0.70828724  1.53051918
