AD_withoutwater
1.00000
26.063  0.     0.   
  0.    26.063  0.   
  0.     0.    26.063
H C H H C O N H C H C H H H C O N H C H H H
1 1 1 1 1 1 1 1 1 1 1 1 1 1 1 1 1 1 1 1 1 1
Cartesian
-1.19920231 -1.45487703  0.73222135
 -0.62339668 -0.13368897  0.80115542
 -1.17520605 -0.64250309 -0.16245627
  0.52615593 -0.25046504  0.85575687
 -1.20446011  0.51947184  0.18260606
  0.88445162  0.28133421  1.71641569
 -0.37828337  0.91486876  0.75982172
 -2.02950189  2.39711236  3.73235454
 -0.21360542  0.37080357 -0.15473717
 -1.60894147 -0.27370038  1.03955965
  0.44541831 -0.94333051 -1.27848117
 -1.15733438  0.31145096 -0.86544794
 -0.60466601 -0.53768488 -1.39895064
 -0.62333115 -2.15181285  0.17730208
 -0.36218374 -0.9423305   1.4409365 
 -0.26149675 -1.40197365 -0.71224508
  1.14617663  0.49567356 -1.38233144
 -2.10694982  0.36661114  3.46774236
  1.46572646  1.27249112 -2.32129555
 -1.40350422  0.40856887  1.91572999
 -0.1322461  -1.1843352   0.37057382
 -0.4241718  -0.0034553   2.26099286
