AD_withoutwater
1.00000
26.063  0.     0.   
  0.    26.063  0.   
  0.     0.    26.063
H C H H C O N H C H C H H H C O N H C H H H
1 1 1 1 1 1 1 1 1 1 1 1 1 1 1 1 1 1 1 1 1 1
Cartesian
 -32.54989222  -22.36129517  -13.1904652 
    8.32398387   -1.83521367    3.45857871
  -53.53564888   85.91878911   21.69008128
  -58.51982961  -24.74716841  -41.29873414
   -8.64591654    5.64727945    6.48668976
    3.82098607    0.70341774    0.38839093
   -2.51006206  -12.49788995   -4.30877427
  -87.59161075   36.64664568    4.36193875
    5.76459246    4.00469032    2.44838277
  -86.99524947  -62.1662625   -29.14132778
    6.05740748    4.44071611    2.13203517
   10.30193639    0.08293854   62.36863328
  -11.74171354 -102.33048895  -28.93204604
   44.08156176  -65.1906307     1.05972621
    5.79782799    4.41842183    2.04392163
    4.6879146     3.07137572    4.26416182
   -2.43394505   -4.39078478  -16.23752382
  -25.62703311   34.754571    -31.10734643
   18.76320072   12.00631449   -1.44497029
  -42.76368094  -54.09451218   48.79918907
  -79.16968451   -2.88987986   59.98552203
  -69.18838214    9.97877112  -19.53653799
