AD_withoutwater
1.00000
26.063  0.     0.   
  0.    26.063  0.   
  0.     0.    26.063
H C H H C O N H C H C H H H C O N H C H H H
1 1 1 1 1 1 1 1 1 1 1 1 1 1 1 1 1 1 1 1 1 1
Cartesian
-27.46244072 -21.91817337  -8.15513552
   2.60455886  -1.83259133   3.51315301
 -54.36335819  75.84236152  23.67323747
 -66.47178452 -10.21689013 -45.6840094 
  -6.37807381   3.8213315    5.11473525
   2.62623057   1.41221818   0.41913097
  -1.44779072  -9.23292685  -4.41114353
 -76.38473943  35.32846763   5.74386826
   6.02071462   3.79439423   2.64434454
 -63.34014055 -44.70335278 -18.4091244 
   6.75623546   2.55832545   0.36869442
   8.99042979  -5.7913626   63.00746036
  -6.98099038 -91.69524694 -27.45382884
  36.83913707 -53.52565018  -2.39160769
   6.54929756   3.55166673   1.38010492
   3.95331228   2.32206183   4.24842422
  -0.96191941  -3.38261705 -12.52417061
 -29.95258593  22.91921709 -27.43060817
  14.04009196   8.2734771   -1.84079413
 -32.97974571 -41.55548994  46.71462313
 -60.88182209   4.34969491  39.26031221
 -47.79715101   7.24061873 -17.21632392
