AD_withoutwater
1.00000
26.063  0.     0.   
  0.    26.063  0.   
  0.     0.    26.063
H C H H C O N H C H C H H H C O N H C H H H
1 1 1 1 1 1 1 1 1 1 1 1 1 1 1 1 1 1 1 1 1 1
Cartesian
-3.80355151 -0.62594028 -0.30899937
 -3.06685578 -1.14206549  0.28600791
 -2.61174711 -2.06432318 -0.22282196
 -3.49998952 -1.46057031  1.25983531
 -1.87707734 -0.24596272  0.62941635
 -2.01755494  0.87892987  1.1016215 
 -0.61607297 -0.79156925  0.44769094
 -0.52325082 -1.81573714  0.44362651
  0.59277619 -0.13111751  0.85273004
  0.25335686  0.76655674  1.4055852 
  1.45059873 -0.93459301  1.74949272
  2.20424913 -0.28989955  2.19918592
  1.98807324 -1.73667605  1.15290639
  0.80010985 -1.40093103  2.49073463
  1.36935581  0.39784744 -0.3286664 
  2.55676869  0.65208348 -0.24179112
  0.61588634  0.43452295 -1.4581982 
 -0.32989248  0.06001423 -1.36697431
  1.17408782  0.92798619 -2.68082645
  1.334507    2.04392684 -2.58475807
  2.12890665  0.46328053 -2.97643618
  0.44477334  0.66186721 -3.45913473
