AD_withoutwater
1.00000
26.063  0.     0.   
  0.    26.063  0.   
  0.     0.    26.063
H C H H C O N H C H C H H H C O N H C H H H
1 1 1 1 1 1 1 1 1 1 1 1 1 1 1 1 1 1 1 1 1 1
Cartesian
-0.56303116 -0.26702767  0.00847306
 -1.30037151  1.26923301  0.92484716
 -1.39725871 -1.32009303  0.43014739
 -0.253864   -0.46295379  1.61318318
 -1.76976007  0.41876455  1.54839372
 -0.8586489   0.22986871  0.89246338
 -0.40899606  1.69050647  0.9440921 
 -2.96845168 -0.95405274  3.35351658
  0.1554625  -1.33499889  0.1355574 
 -1.7267498  -0.13245262  0.4599201 
  1.26136864 -1.1812885   0.13476446
  0.54798978 -1.27025744  1.42337154
 -0.48358753 -1.54819137  1.04238631
  2.05955188 -2.27014391  0.80376997
  0.73330165 -0.06790667  0.35069776
  0.6199317  -0.37109288 -0.76748134
  1.21235537  0.31983392 -1.54048602
 -0.32192588 -1.63582395 -1.00341811
  0.66015357 -0.12960975 -2.50002483
  1.14817662 -1.27631735 -0.94142721
  1.56348382 -0.46061153 -2.17144147
  0.8661058  -1.34228814 -2.20443068
