AD_withoutwater
1.00000
26.063  0.     0.   
  0.    26.063  0.   
  0.     0.    26.063
H C H H C O N H C H C H H H C O N H C H H H
1 1 1 1 1 1 1 1 1 1 1 1 1 1 1 1 1 1 1 1 1 1
Cartesian
-0.40995371 -2.09164211  0.87888794
 -0.90889344 -0.25992802  0.78091543
 -0.77413212 -0.41351814 -0.20567771
  0.10787567 -0.30354486  1.2051674 
 -1.26358933  0.69124026 -0.15093157
  1.21237482  0.35278087  1.50957621
 -0.43631245  0.76711355  0.86885099
 -2.33987259  2.53781577  4.16139417
 -0.02320507  0.54632534 -0.12679632
 -1.96324027 -0.20640467 -0.4558802 
  0.60457032 -0.87107354 -1.35717672
 -0.60551003  0.21295708 -1.03517866
  0.31031883  0.25450163 -1.91735897
 -0.41427658 -2.63858485 -0.28403605
 -0.26754828 -1.19454888  1.57986304
 -0.57393565 -1.45276377 -0.49465314
  1.21145759  0.72336813 -1.17929157
 -2.85737173  1.51720942  3.97065761
  1.254149    0.99550276 -2.27312271
 -1.31982539  0.50721348  1.42530173
 -0.00524904 -1.03220377  0.51515365
 -0.67169678  0.01189782  1.95140842
