AD_withoutwater
1.00000
26.063  0.     0.   
  0.    26.063  0.   
  0.     0.    26.063
H C H H C O N H C H C H H H C O N H C H H H
1 1 1 1 1 1 1 1 1 1 1 1 1 1 1 1 1 1 1 1 1 1
Cartesian
-25.1975592  -20.87898902  -8.48845394
   0.4579163   -0.71069398   3.81574558
 -55.61548384  70.72104238  27.17366519
 -70.09596368  -2.5846048  -47.62568102
  -5.31435382   2.99010243   4.43965479
   1.92731303   1.77652665   0.29906922
  -0.98210579  -7.63833569  -4.37002597
 -69.29014393  32.80438069   7.61826434
   5.85273051   3.00954412   2.01930618
 -54.26949431 -34.18654956 -13.63996141
   6.97958397   1.90457092   0.50227217
   8.97817312  -9.20997259  63.15575225
  -1.84418418 -82.32337749 -24.27959687
  33.02736758 -47.05134502  -3.02015868
   6.01023545   2.35389239   1.51841902
   4.43490502   1.74870664   3.61710864
  -0.31397981  -2.93613603 -10.67212003
 -29.4905705   16.48041604 -25.7354814 
  11.44677688   6.58619582  -1.73436616
 -27.75485791 -38.43185051  40.43009221
 -52.87070675   8.35529946  27.44182325
 -38.84222837   5.56215456 -18.34977805
