AD_withoutwater
1.00000
26.063  0.     0.   
  0.    26.063  0.   
  0.     0.    26.063
H C H H C O N H C H C H H H C O N H C H H H
1 1 1 1 1 1 1 1 1 1 1 1 1 1 1 1 1 1 1 1 1 1
Cartesian
-0.72434794  0.11942878  0.04430849
 -0.71619576  0.35690439  1.05070996
 -1.01683086 -1.13464347  0.07034424
  0.26197075  0.16313794  0.69995721
 -2.12223626  0.71722276  1.34278157
  0.12698101  0.23976576  1.98850923
  0.1056732   1.37881195  0.44466872
 -1.53544201  1.27530075  2.59896697
  0.08450997 -0.72054684  0.00234038
 -1.54843833 -0.4787728   0.79212997
  0.43547381 -0.47836085 -1.00259005
 -0.63650249 -0.57062185 -1.53385703
  0.17811945 -2.10229845 -1.72296235
  0.30617521 -1.36163556  2.20092535
 -0.46366195 -0.59809455  0.92891455
  0.02048754 -1.47636346 -0.87246798
  1.12777978  0.49335951 -2.61298413
 -0.08232946 -2.36920074  1.612632  
  1.6942644   1.13857263 -1.58641169
  0.66462452 -1.90117572  0.95674009
 -0.62093539 -1.71240219  0.91352217
  0.996906   -0.76378483  0.60784522
