AD_withoutwater
1.00000
26.063  0.     0.   
  0.    26.063  0.   
  0.     0.    26.063
H C H H C O N H C H C H H H C O N H C H H H
1 1 1 1 1 1 1 1 1 1 1 1 1 1 1 1 1 1 1 1 1 1
Cartesian
-2.38916199  0.19671261  0.49168529
 -1.95143339  1.05191355  0.79984379
 -1.73073025 -0.77589135  0.6762184 
 -1.86015766 -0.9922542   1.8223257 
 -1.70988288 -0.04398378  1.38477229
 -0.97624081  0.63630296  0.68465725
  0.05625918  1.64454605  1.11994052
 -3.07575528 -1.62539805  3.32067022
 -0.01629812 -1.19524177  0.20915568
 -2.73709765 -0.27033609  1.64976706
  1.22416425 -1.40800942  0.40373127
  0.30704699 -2.01464364  1.25668477
 -0.54555393 -2.17111655  0.5356082 
  1.49197825 -1.82832913  1.52621202
  1.17640465  0.23113832  0.45659546
  1.04507523 -0.41416537 -0.65277705
  1.28382448 -0.01153889 -1.77812473
 -0.84903576 -0.2091217   0.18183746
  0.28613117  0.12652863 -2.64194886
  2.0431343  -0.98409444 -1.71507499
  2.60947411  0.17983957 -2.10966238
  1.57441395 -0.43103842 -2.70646873
