AD_withoutwater
1.00000
26.063  0.     0.   
  0.    26.063  0.   
  0.     0.    26.063
H C H H C O N H C H C H H H C O N H C H H H
1 1 1 1 1 1 1 1 1 1 1 1 1 1 1 1 1 1 1 1 1 1
Cartesian
-3.88526322  0.54300154  0.93525354
 -3.16055945 -0.2674847   0.71894645
 -3.27570618 -0.67801287 -0.32268434
 -3.39846009 -1.07573496  1.41721847
 -1.79202527  0.25267805  0.95091624
 -1.55995228  1.35845308  1.42752568
 -0.79218615 -0.60193308  0.60765964
 -1.03085386 -1.59930946  0.64504904
  0.610281   -0.25659924  0.78371017
  0.68944995  0.65034371  1.37673821
  1.37879236 -1.37174448  1.53638614
  2.47878431 -1.07742302  1.52326432
  1.26671361 -2.32024691  1.01798966
  1.02666321 -1.41137799  2.56191045
  1.33312344  0.0731399  -0.53844379
  2.55722544  0.02938574 -0.62694423
  0.52897812  0.35242044 -1.57367523
 -0.46022158  0.23318423 -1.41062538
  1.08622881  0.49049195 -2.92405875
  1.87901384  1.23127226 -2.89032218
  1.43011986 -0.49183428 -3.27498007
  0.27586139  0.80965423 -3.59220062
