AD_withoutwater
1.00000
26.063  0.     0.   
  0.    26.063  0.   
  0.     0.    26.063
H C H H C O N H C H C H H H C O N H C H H H
1 1 1 1 1 1 1 1 1 1 1 1 1 1 1 1 1 1 1 1 1 1
Cartesian
 -31.1891244   -22.6488848   -10.9747574 
    6.91386888   -1.91598531    3.25517062
  -53.23244499   85.36425517   21.64723051
  -60.30743529  -21.91307123  -42.73313933
   -8.17883422    5.22097289    6.28064472
    3.77296491    0.83622275    0.62154761
   -2.2714003   -11.80956095   -4.34656447
  -84.6622386    36.61152429    4.52368306
    5.48713764    3.71616691    2.63891331
  -81.20359356  -59.11464281  -26.81646058
    6.34612006    4.84222126    1.19839817
    9.88459311   -1.22915535   62.50251708
  -12.78574087 -101.65108511  -29.21718413
   42.33824108  -62.57944929    0.30987016
    6.08254746    3.6756103     2.07010148
    4.41921001    3.1156664     4.35094421
   -2.09068142   -4.18891446  -15.45414137
  -27.2560524    31.04249417  -30.92294844
   17.81045252   11.14461868   -1.58908839
  -38.92179061  -49.82607236   49.17687917
  -75.05298173   -1.86847371   56.02803426
  -64.89416808   10.05936616  -18.75134515
