AD_withoutwater
1.00000
26.063  0.     0.   
  0.    26.063  0.   
  0.     0.    26.063
H C H H C O N H C H C H H H C O N H C H H H
1 1 1 1 1 1 1 1 1 1 1 1 1 1 1 1 1 1 1 1 1 1
Cartesian
 -37.80997309  -24.16558925  -15.19799957
   16.26205678   -1.66685359    4.12877768
  -54.40677985   99.39683141   22.59800801
  -61.13836177  -38.85405699  -27.46560619
  -11.33952919    8.80130949    6.34566188
    5.05321579    1.92568093    0.21687845
   -3.69992079  -18.08763233   -3.69938462
  -96.0318248    36.3625236     1.61653098
    5.16778593    5.99701445    2.55095037
 -118.99535732  -82.59460868  -40.15552989
    5.22722744    5.27759053    2.40182232
   14.1923248     8.32219805   63.71436859
   -9.00882865 -105.37990447  -33.18562776
   44.27264295  -80.5196801    13.7351579 
    4.98509646    5.80284376    3.33417304
    5.56960651    0.98947024    4.67659355
   -4.68044107   -5.56724038  -20.9493597 
  -30.12480204   47.43799661  -30.1566123 
   23.76227567   17.03692962   -0.87075682
  -58.05487079  -55.92000689   46.9275073 
  -85.57004525  -12.33564433   75.54435534
  -81.85246786   -0.2328418   -22.70219734
